*SPEF "ieee 1481-1999"
*DESIGN "ram_axi"
*DATE "21:32:52 Friday August 14, 2026"
*VENDOR "The OpenROAD Project"
*PROGRAM "OpenROAD"
*VERSION "dcf36133a369abc8f3c5e5738cd4d82e4903c0e0"
*DESIGN_FLOW "NAME_SCOPE LOCAL" "PIN_CAP NONE"
*DIVIDER /
*DELIMITER :
*BUS_DELIMITER []
*T_UNIT 1 NS
*C_UNIT 1 PF
*R_UNIT 1 OHM
*L_UNIT 1 HENRY

*NAME_MAP
*3 axi_araddr_i[0]
*4 axi_araddr_i[10]
*5 axi_araddr_i[11]
*6 axi_araddr_i[12]
*7 axi_araddr_i[13]
*8 axi_araddr_i[14]
*9 axi_araddr_i[15]
*10 axi_araddr_i[16]
*11 axi_araddr_i[17]
*12 axi_araddr_i[18]
*13 axi_araddr_i[19]
*14 axi_araddr_i[1]
*15 axi_araddr_i[20]
*16 axi_araddr_i[21]
*17 axi_araddr_i[22]
*18 axi_araddr_i[23]
*19 axi_araddr_i[24]
*20 axi_araddr_i[25]
*21 axi_araddr_i[26]
*22 axi_araddr_i[27]
*23 axi_araddr_i[28]
*24 axi_araddr_i[29]
*25 axi_araddr_i[2]
*26 axi_araddr_i[30]
*27 axi_araddr_i[31]
*28 axi_araddr_i[3]
*29 axi_araddr_i[4]
*30 axi_araddr_i[5]
*31 axi_araddr_i[6]
*32 axi_araddr_i[7]
*33 axi_araddr_i[8]
*34 axi_araddr_i[9]
*35 axi_arprot_i[0]
*36 axi_arprot_i[1]
*37 axi_arprot_i[2]
*38 axi_arready_o
*39 axi_arvalid_i
*40 axi_awaddr_i[0]
*41 axi_awaddr_i[10]
*42 axi_awaddr_i[11]
*43 axi_awaddr_i[12]
*44 axi_awaddr_i[13]
*45 axi_awaddr_i[14]
*46 axi_awaddr_i[15]
*47 axi_awaddr_i[16]
*48 axi_awaddr_i[17]
*49 axi_awaddr_i[18]
*50 axi_awaddr_i[19]
*51 axi_awaddr_i[1]
*52 axi_awaddr_i[20]
*53 axi_awaddr_i[21]
*54 axi_awaddr_i[22]
*55 axi_awaddr_i[23]
*56 axi_awaddr_i[24]
*57 axi_awaddr_i[25]
*58 axi_awaddr_i[26]
*59 axi_awaddr_i[27]
*60 axi_awaddr_i[28]
*61 axi_awaddr_i[29]
*62 axi_awaddr_i[2]
*63 axi_awaddr_i[30]
*64 axi_awaddr_i[31]
*65 axi_awaddr_i[3]
*66 axi_awaddr_i[4]
*67 axi_awaddr_i[5]
*68 axi_awaddr_i[6]
*69 axi_awaddr_i[7]
*70 axi_awaddr_i[8]
*71 axi_awaddr_i[9]
*72 axi_awprot_i[0]
*73 axi_awprot_i[1]
*74 axi_awprot_i[2]
*75 axi_awready_o
*76 axi_awvalid_i
*77 axi_bready_i
*78 axi_bresp_o[0]
*79 axi_bresp_o[1]
*80 axi_bvalid_o
*81 axi_rdata_o[0]
*82 axi_rdata_o[10]
*83 axi_rdata_o[11]
*84 axi_rdata_o[12]
*85 axi_rdata_o[13]
*86 axi_rdata_o[14]
*87 axi_rdata_o[15]
*88 axi_rdata_o[16]
*89 axi_rdata_o[17]
*90 axi_rdata_o[18]
*91 axi_rdata_o[19]
*92 axi_rdata_o[1]
*93 axi_rdata_o[20]
*94 axi_rdata_o[21]
*95 axi_rdata_o[22]
*96 axi_rdata_o[23]
*97 axi_rdata_o[24]
*98 axi_rdata_o[25]
*99 axi_rdata_o[26]
*100 axi_rdata_o[27]
*101 axi_rdata_o[28]
*102 axi_rdata_o[29]
*103 axi_rdata_o[2]
*104 axi_rdata_o[30]
*105 axi_rdata_o[31]
*106 axi_rdata_o[3]
*107 axi_rdata_o[4]
*108 axi_rdata_o[5]
*109 axi_rdata_o[6]
*110 axi_rdata_o[7]
*111 axi_rdata_o[8]
*112 axi_rdata_o[9]
*113 axi_rready_i
*114 axi_rresp_o[0]
*115 axi_rresp_o[1]
*116 axi_rvalid_o
*117 axi_wdata_i[0]
*118 axi_wdata_i[10]
*119 axi_wdata_i[11]
*120 axi_wdata_i[12]
*121 axi_wdata_i[13]
*122 axi_wdata_i[14]
*123 axi_wdata_i[15]
*124 axi_wdata_i[16]
*125 axi_wdata_i[17]
*126 axi_wdata_i[18]
*127 axi_wdata_i[19]
*128 axi_wdata_i[1]
*129 axi_wdata_i[20]
*130 axi_wdata_i[21]
*131 axi_wdata_i[22]
*132 axi_wdata_i[23]
*133 axi_wdata_i[24]
*134 axi_wdata_i[25]
*135 axi_wdata_i[26]
*136 axi_wdata_i[27]
*137 axi_wdata_i[28]
*138 axi_wdata_i[29]
*139 axi_wdata_i[2]
*140 axi_wdata_i[30]
*141 axi_wdata_i[31]
*142 axi_wdata_i[3]
*143 axi_wdata_i[4]
*144 axi_wdata_i[5]
*145 axi_wdata_i[6]
*146 axi_wdata_i[7]
*147 axi_wdata_i[8]
*148 axi_wdata_i[9]
*149 axi_wready_o
*150 axi_wstrb_i[0]
*151 axi_wstrb_i[1]
*152 axi_wstrb_i[2]
*153 axi_wstrb_i[3]
*154 axi_wvalid_i
*155 clk_i
*156 rst_ni
*157 _00_
*158 _01_
*159 _02_
*160 _03_
*161 _04_
*162 _05_
*163 _06_
*164 _07_
*165 _08_
*166 _09_
*167 _10_
*168 _11_
*169 _12_
*170 _13_
*171 _14_
*172 _15_
*173 _16_
*174 _17_
*175 _18_
*176 clk_i_regs
*177 clknet_0_clk_i
*178 clknet_0_clk_i_regs
*179 clknet_1_0__leaf_clk_i
*180 clknet_1_0__leaf_clk_i_regs
*181 clknet_1_1__leaf_clk_i
*182 clknet_1_1__leaf_clk_i_regs
*183 net1
*184 net2
*185 net3
*186 sram_addr0\[0\]
*187 sram_addr0\[1\]
*188 sram_addr0\[2\]
*189 sram_addr0\[3\]
*190 sram_addr0\[4\]
*191 sram_addr0\[5\]
*192 sram_addr0\[6\]
*193 sram_addr0\[7\]
*194 sram_csb0
*195 sram_web0
*196 sram_wmask0\[0\]
*197 sram_wmask0\[1\]
*198 sram_wmask0\[2\]
*199 sram_wmask0\[3\]
*200 state_q\[0\]
*201 state_q\[2\]
*202 FILLER_0_100
*203 FILLER_0_1002
*204 FILLER_0_1005
*205 FILLER_0_1009
*206 FILLER_0_1012
*207 FILLER_0_1015
*208 FILLER_0_1018
*209 FILLER_0_1021
*210 FILLER_0_1024
*211 FILLER_0_1027
*212 FILLER_0_103
*213 FILLER_0_1030
*214 FILLER_0_1033
*215 FILLER_0_1037
*216 FILLER_0_1040
*217 FILLER_0_1043
*218 FILLER_0_1046
*219 FILLER_0_1049
*220 FILLER_0_1052
*221 FILLER_0_1055
*222 FILLER_0_1058
*223 FILLER_0_106
*224 FILLER_0_1061
*225 FILLER_0_1065
*226 FILLER_0_1068
*227 FILLER_0_1071
*228 FILLER_0_1074
*229 FILLER_0_1077
*230 FILLER_0_1080
*231 FILLER_0_1083
*232 FILLER_0_1086
*233 FILLER_0_1089
*234 FILLER_0_109
*235 FILLER_0_1093
*236 FILLER_0_1096
*237 FILLER_0_1099
*238 FILLER_0_1102
*239 FILLER_0_1105
*240 FILLER_0_1108
*241 FILLER_0_1111
*242 FILLER_0_1114
*243 FILLER_0_1117
*244 FILLER_0_1121
*245 FILLER_0_1124
*246 FILLER_0_1127
*247 FILLER_0_113
*248 FILLER_0_1130
*249 FILLER_0_1133
*250 FILLER_0_1136
*251 FILLER_0_1139
*252 FILLER_0_1142
*253 FILLER_0_1145
*254 FILLER_0_1149
*255 FILLER_0_1152
*256 FILLER_0_1155
*257 FILLER_0_1158
*258 FILLER_0_116
*259 FILLER_0_1161
*260 FILLER_0_1164
*261 FILLER_0_1167
*262 FILLER_0_1170
*263 FILLER_0_1173
*264 FILLER_0_1177
*265 FILLER_0_1180
*266 FILLER_0_1183
*267 FILLER_0_1186
*268 FILLER_0_1189
*269 FILLER_0_119
*270 FILLER_0_1192
*271 FILLER_0_1195
*272 FILLER_0_1198
*273 FILLER_0_12
*274 FILLER_0_1201
*275 FILLER_0_1205
*276 FILLER_0_1208
*277 FILLER_0_1211
*278 FILLER_0_1214
*279 FILLER_0_1217
*280 FILLER_0_122
*281 FILLER_0_1220
*282 FILLER_0_1223
*283 FILLER_0_1226
*284 FILLER_0_1229
*285 FILLER_0_1233
*286 FILLER_0_1236
*287 FILLER_0_1239
*288 FILLER_0_1242
*289 FILLER_0_1245
*290 FILLER_0_1248
*291 FILLER_0_125
*292 FILLER_0_1251
*293 FILLER_0_1254
*294 FILLER_0_1257
*295 FILLER_0_1261
*296 FILLER_0_1264
*297 FILLER_0_1267
*298 FILLER_0_1270
*299 FILLER_0_1273
*300 FILLER_0_1276
*301 FILLER_0_1279
*302 FILLER_0_128
*303 FILLER_0_1282
*304 FILLER_0_1285
*305 FILLER_0_1289
*306 FILLER_0_1292
*307 FILLER_0_1295
*308 FILLER_0_1298
*309 FILLER_0_1301
*310 FILLER_0_1304
*311 FILLER_0_1307
*312 FILLER_0_131
*313 FILLER_0_1310
*314 FILLER_0_1313
*315 FILLER_0_1317
*316 FILLER_0_1320
*317 FILLER_0_1323
*318 FILLER_0_1326
*319 FILLER_0_1329
*320 FILLER_0_1332
*321 FILLER_0_1335
*322 FILLER_0_1338
*323 FILLER_0_134
*324 FILLER_0_1341
*325 FILLER_0_1345
*326 FILLER_0_1348
*327 FILLER_0_1351
*328 FILLER_0_1354
*329 FILLER_0_1357
*330 FILLER_0_1360
*331 FILLER_0_1363
*332 FILLER_0_137
*333 FILLER_0_141
*334 FILLER_0_144
*335 FILLER_0_147
*336 FILLER_0_15
*337 FILLER_0_150
*338 FILLER_0_153
*339 FILLER_0_156
*340 FILLER_0_159
*341 FILLER_0_162
*342 FILLER_0_165
*343 FILLER_0_169
*344 FILLER_0_172
*345 FILLER_0_175
*346 FILLER_0_178
*347 FILLER_0_18
*348 FILLER_0_181
*349 FILLER_0_184
*350 FILLER_0_187
*351 FILLER_0_190
*352 FILLER_0_193
*353 FILLER_0_197
*354 FILLER_0_200
*355 FILLER_0_203
*356 FILLER_0_206
*357 FILLER_0_209
*358 FILLER_0_21
*359 FILLER_0_212
*360 FILLER_0_215
*361 FILLER_0_218
*362 FILLER_0_221
*363 FILLER_0_225
*364 FILLER_0_228
*365 FILLER_0_231
*366 FILLER_0_234
*367 FILLER_0_237
*368 FILLER_0_24
*369 FILLER_0_240
*370 FILLER_0_243
*371 FILLER_0_246
*372 FILLER_0_249
*373 FILLER_0_253
*374 FILLER_0_256
*375 FILLER_0_259
*376 FILLER_0_262
*377 FILLER_0_265
*378 FILLER_0_268
*379 FILLER_0_27
*380 FILLER_0_271
*381 FILLER_0_274
*382 FILLER_0_277
*383 FILLER_0_281
*384 FILLER_0_284
*385 FILLER_0_287
*386 FILLER_0_29
*387 FILLER_0_290
*388 FILLER_0_293
*389 FILLER_0_296
*390 FILLER_0_299
*391 FILLER_0_3
*392 FILLER_0_302
*393 FILLER_0_305
*394 FILLER_0_309
*395 FILLER_0_312
*396 FILLER_0_315
*397 FILLER_0_318
*398 FILLER_0_32
*399 FILLER_0_321
*400 FILLER_0_324
*401 FILLER_0_327
*402 FILLER_0_330
*403 FILLER_0_333
*404 FILLER_0_337
*405 FILLER_0_340
*406 FILLER_0_343
*407 FILLER_0_346
*408 FILLER_0_349
*409 FILLER_0_35
*410 FILLER_0_352
*411 FILLER_0_355
*412 FILLER_0_358
*413 FILLER_0_361
*414 FILLER_0_365
*415 FILLER_0_368
*416 FILLER_0_371
*417 FILLER_0_374
*418 FILLER_0_377
*419 FILLER_0_38
*420 FILLER_0_380
*421 FILLER_0_383
*422 FILLER_0_386
*423 FILLER_0_389
*424 FILLER_0_393
*425 FILLER_0_396
*426 FILLER_0_399
*427 FILLER_0_402
*428 FILLER_0_405
*429 FILLER_0_408
*430 FILLER_0_41
*431 FILLER_0_411
*432 FILLER_0_414
*433 FILLER_0_417
*434 FILLER_0_421
*435 FILLER_0_424
*436 FILLER_0_427
*437 FILLER_0_430
*438 FILLER_0_433
*439 FILLER_0_436
*440 FILLER_0_439
*441 FILLER_0_44
*442 FILLER_0_442
*443 FILLER_0_445
*444 FILLER_0_449
*445 FILLER_0_452
*446 FILLER_0_455
*447 FILLER_0_458
*448 FILLER_0_461
*449 FILLER_0_464
*450 FILLER_0_467
*451 FILLER_0_47
*452 FILLER_0_470
*453 FILLER_0_473
*454 FILLER_0_477
*455 FILLER_0_480
*456 FILLER_0_483
*457 FILLER_0_486
*458 FILLER_0_489
*459 FILLER_0_492
*460 FILLER_0_495
*461 FILLER_0_498
*462 FILLER_0_50
*463 FILLER_0_501
*464 FILLER_0_505
*465 FILLER_0_508
*466 FILLER_0_511
*467 FILLER_0_514
*468 FILLER_0_517
*469 FILLER_0_520
*470 FILLER_0_523
*471 FILLER_0_526
*472 FILLER_0_529
*473 FILLER_0_53
*474 FILLER_0_533
*475 FILLER_0_536
*476 FILLER_0_539
*477 FILLER_0_542
*478 FILLER_0_545
*479 FILLER_0_548
*480 FILLER_0_551
*481 FILLER_0_554
*482 FILLER_0_557
*483 FILLER_0_561
*484 FILLER_0_564
*485 FILLER_0_567
*486 FILLER_0_57
*487 FILLER_0_570
*488 FILLER_0_573
*489 FILLER_0_576
*490 FILLER_0_579
*491 FILLER_0_582
*492 FILLER_0_585
*493 FILLER_0_589
*494 FILLER_0_592
*495 FILLER_0_595
*496 FILLER_0_598
*497 FILLER_0_6
*498 FILLER_0_60
*499 FILLER_0_601
*500 FILLER_0_604
*501 FILLER_0_607
*502 FILLER_0_610
*503 FILLER_0_613
*504 FILLER_0_617
*505 FILLER_0_620
*506 FILLER_0_623
*507 FILLER_0_626
*508 FILLER_0_629
*509 FILLER_0_63
*510 FILLER_0_632
*511 FILLER_0_635
*512 FILLER_0_638
*513 FILLER_0_641
*514 FILLER_0_645
*515 FILLER_0_648
*516 FILLER_0_651
*517 FILLER_0_654
*518 FILLER_0_657
*519 FILLER_0_66
*520 FILLER_0_660
*521 FILLER_0_663
*522 FILLER_0_666
*523 FILLER_0_669
*524 FILLER_0_673
*525 FILLER_0_676
*526 FILLER_0_679
*527 FILLER_0_682
*528 FILLER_0_685
*529 FILLER_0_688
*530 FILLER_0_69
*531 FILLER_0_691
*532 FILLER_0_694
*533 FILLER_0_697
*534 FILLER_0_701
*535 FILLER_0_704
*536 FILLER_0_707
*537 FILLER_0_710
*538 FILLER_0_713
*539 FILLER_0_716
*540 FILLER_0_719
*541 FILLER_0_72
*542 FILLER_0_722
*543 FILLER_0_725
*544 FILLER_0_729
*545 FILLER_0_732
*546 FILLER_0_735
*547 FILLER_0_738
*548 FILLER_0_741
*549 FILLER_0_744
*550 FILLER_0_747
*551 FILLER_0_75
*552 FILLER_0_750
*553 FILLER_0_753
*554 FILLER_0_757
*555 FILLER_0_760
*556 FILLER_0_763
*557 FILLER_0_766
*558 FILLER_0_769
*559 FILLER_0_772
*560 FILLER_0_775
*561 FILLER_0_778
*562 FILLER_0_78
*563 FILLER_0_781
*564 FILLER_0_785
*565 FILLER_0_788
*566 FILLER_0_791
*567 FILLER_0_794
*568 FILLER_0_797
*569 FILLER_0_800
*570 FILLER_0_803
*571 FILLER_0_806
*572 FILLER_0_809
*573 FILLER_0_81
*574 FILLER_0_813
*575 FILLER_0_816
*576 FILLER_0_819
*577 FILLER_0_822
*578 FILLER_0_825
*579 FILLER_0_828
*580 FILLER_0_831
*581 FILLER_0_834
*582 FILLER_0_837
*583 FILLER_0_841
*584 FILLER_0_844
*585 FILLER_0_847
*586 FILLER_0_85
*587 FILLER_0_850
*588 FILLER_0_853
*589 FILLER_0_856
*590 FILLER_0_859
*591 FILLER_0_862
*592 FILLER_0_865
*593 FILLER_0_869
*594 FILLER_0_872
*595 FILLER_0_875
*596 FILLER_0_878
*597 FILLER_0_88
*598 FILLER_0_881
*599 FILLER_0_884
*600 FILLER_0_887
*601 FILLER_0_890
*602 FILLER_0_893
*603 FILLER_0_897
*604 FILLER_0_9
*605 FILLER_0_900
*606 FILLER_0_903
*607 FILLER_0_906
*608 FILLER_0_909
*609 FILLER_0_91
*610 FILLER_0_912
*611 FILLER_0_915
*612 FILLER_0_918
*613 FILLER_0_921
*614 FILLER_0_925
*615 FILLER_0_928
*616 FILLER_0_931
*617 FILLER_0_934
*618 FILLER_0_937
*619 FILLER_0_94
*620 FILLER_0_940
*621 FILLER_0_943
*622 FILLER_0_946
*623 FILLER_0_949
*624 FILLER_0_953
*625 FILLER_0_956
*626 FILLER_0_959
*627 FILLER_0_962
*628 FILLER_0_965
*629 FILLER_0_968
*630 FILLER_0_97
*631 FILLER_0_971
*632 FILLER_0_974
*633 FILLER_0_977
*634 FILLER_0_981
*635 FILLER_0_984
*636 FILLER_0_987
*637 FILLER_0_990
*638 FILLER_0_993
*639 FILLER_0_996
*640 FILLER_0_999
*641 FILLER_100_100
*642 FILLER_100_103
*643 FILLER_100_106
*644 FILLER_100_109
*645 FILLER_100_112
*646 FILLER_100_12
*647 FILLER_100_1208
*648 FILLER_100_1211
*649 FILLER_100_1214
*650 FILLER_100_1217
*651 FILLER_100_1220
*652 FILLER_100_1223
*653 FILLER_100_1226
*654 FILLER_100_1229
*655 FILLER_100_1232
*656 FILLER_100_1234
*657 FILLER_100_1237
*658 FILLER_100_1240
*659 FILLER_100_1243
*660 FILLER_100_1246
*661 FILLER_100_1249
*662 FILLER_100_1252
*663 FILLER_100_1255
*664 FILLER_100_1258
*665 FILLER_100_1261
*666 FILLER_100_1264
*667 FILLER_100_1267
*668 FILLER_100_1270
*669 FILLER_100_1273
*670 FILLER_100_1276
*671 FILLER_100_1279
*672 FILLER_100_1282
*673 FILLER_100_1285
*674 FILLER_100_1288
*675 FILLER_100_1290
*676 FILLER_100_1293
*677 FILLER_100_1296
*678 FILLER_100_1299
*679 FILLER_100_1302
*680 FILLER_100_1305
*681 FILLER_100_1308
*682 FILLER_100_1311
*683 FILLER_100_1314
*684 FILLER_100_1317
*685 FILLER_100_1320
*686 FILLER_100_1323
*687 FILLER_100_1326
*688 FILLER_100_1329
*689 FILLER_100_1332
*690 FILLER_100_1335
*691 FILLER_100_1338
*692 FILLER_100_1341
*693 FILLER_100_1344
*694 FILLER_100_1346
*695 FILLER_100_1349
*696 FILLER_100_1352
*697 FILLER_100_1355
*698 FILLER_100_1358
*699 FILLER_100_1361
*700 FILLER_100_15
*701 FILLER_100_18
*702 FILLER_100_21
*703 FILLER_100_24
*704 FILLER_100_27
*705 FILLER_100_29
*706 FILLER_100_3
*707 FILLER_100_32
*708 FILLER_100_35
*709 FILLER_100_38
*710 FILLER_100_41
*711 FILLER_100_44
*712 FILLER_100_47
*713 FILLER_100_50
*714 FILLER_100_53
*715 FILLER_100_56
*716 FILLER_100_59
*717 FILLER_100_6
*718 FILLER_100_62
*719 FILLER_100_65
*720 FILLER_100_68
*721 FILLER_100_71
*722 FILLER_100_74
*723 FILLER_100_77
*724 FILLER_100_80
*725 FILLER_100_83
*726 FILLER_100_85
*727 FILLER_100_88
*728 FILLER_100_9
*729 FILLER_100_91
*730 FILLER_100_94
*731 FILLER_100_97
*732 FILLER_101_102
*733 FILLER_101_105
*734 FILLER_101_108
*735 FILLER_101_111
*736 FILLER_101_113
*737 FILLER_101_12
*738 FILLER_101_1208
*739 FILLER_101_1211
*740 FILLER_101_1214
*741 FILLER_101_1217
*742 FILLER_101_1220
*743 FILLER_101_1223
*744 FILLER_101_1226
*745 FILLER_101_1229
*746 FILLER_101_1232
*747 FILLER_101_1235
*748 FILLER_101_1238
*749 FILLER_101_1241
*750 FILLER_101_1244
*751 FILLER_101_1247
*752 FILLER_101_1250
*753 FILLER_101_1253
*754 FILLER_101_1256
*755 FILLER_101_1259
*756 FILLER_101_1262
*757 FILLER_101_1265
*758 FILLER_101_1268
*759 FILLER_101_1271
*760 FILLER_101_1274
*761 FILLER_101_1277
*762 FILLER_101_1280
*763 FILLER_101_1283
*764 FILLER_101_1286
*765 FILLER_101_1289
*766 FILLER_101_1292
*767 FILLER_101_1295
*768 FILLER_101_1298
*769 FILLER_101_1301
*770 FILLER_101_1304
*771 FILLER_101_1307
*772 FILLER_101_1310
*773 FILLER_101_1313
*774 FILLER_101_1316
*775 FILLER_101_1318
*776 FILLER_101_1321
*777 FILLER_101_1324
*778 FILLER_101_1327
*779 FILLER_101_1330
*780 FILLER_101_1333
*781 FILLER_101_1336
*782 FILLER_101_1339
*783 FILLER_101_1342
*784 FILLER_101_1345
*785 FILLER_101_1348
*786 FILLER_101_1351
*787 FILLER_101_1354
*788 FILLER_101_1357
*789 FILLER_101_1360
*790 FILLER_101_1363
*791 FILLER_101_15
*792 FILLER_101_18
*793 FILLER_101_21
*794 FILLER_101_24
*795 FILLER_101_27
*796 FILLER_101_3
*797 FILLER_101_30
*798 FILLER_101_33
*799 FILLER_101_36
*800 FILLER_101_39
*801 FILLER_101_42
*802 FILLER_101_45
*803 FILLER_101_48
*804 FILLER_101_51
*805 FILLER_101_54
*806 FILLER_101_57
*807 FILLER_101_6
*808 FILLER_101_60
*809 FILLER_101_63
*810 FILLER_101_66
*811 FILLER_101_69
*812 FILLER_101_72
*813 FILLER_101_75
*814 FILLER_101_78
*815 FILLER_101_81
*816 FILLER_101_84
*817 FILLER_101_87
*818 FILLER_101_9
*819 FILLER_101_90
*820 FILLER_101_93
*821 FILLER_101_96
*822 FILLER_101_99
*823 FILLER_102_100
*824 FILLER_102_103
*825 FILLER_102_106
*826 FILLER_102_109
*827 FILLER_102_112
*828 FILLER_102_12
*829 FILLER_102_1208
*830 FILLER_102_1211
*831 FILLER_102_1214
*832 FILLER_102_1217
*833 FILLER_102_1220
*834 FILLER_102_1223
*835 FILLER_102_1226
*836 FILLER_102_1229
*837 FILLER_102_1232
*838 FILLER_102_1234
*839 FILLER_102_1237
*840 FILLER_102_1240
*841 FILLER_102_1243
*842 FILLER_102_1246
*843 FILLER_102_1249
*844 FILLER_102_1252
*845 FILLER_102_1255
*846 FILLER_102_1258
*847 FILLER_102_1261
*848 FILLER_102_1264
*849 FILLER_102_1267
*850 FILLER_102_1270
*851 FILLER_102_1273
*852 FILLER_102_1276
*853 FILLER_102_1279
*854 FILLER_102_1282
*855 FILLER_102_1285
*856 FILLER_102_1288
*857 FILLER_102_1290
*858 FILLER_102_1293
*859 FILLER_102_1296
*860 FILLER_102_1299
*861 FILLER_102_1302
*862 FILLER_102_1305
*863 FILLER_102_1308
*864 FILLER_102_1311
*865 FILLER_102_1314
*866 FILLER_102_1317
*867 FILLER_102_1320
*868 FILLER_102_1323
*869 FILLER_102_1326
*870 FILLER_102_1329
*871 FILLER_102_1332
*872 FILLER_102_1335
*873 FILLER_102_1338
*874 FILLER_102_1341
*875 FILLER_102_1344
*876 FILLER_102_1346
*877 FILLER_102_1349
*878 FILLER_102_1352
*879 FILLER_102_1355
*880 FILLER_102_1358
*881 FILLER_102_1361
*882 FILLER_102_15
*883 FILLER_102_18
*884 FILLER_102_21
*885 FILLER_102_24
*886 FILLER_102_27
*887 FILLER_102_29
*888 FILLER_102_3
*889 FILLER_102_32
*890 FILLER_102_35
*891 FILLER_102_38
*892 FILLER_102_41
*893 FILLER_102_44
*894 FILLER_102_47
*895 FILLER_102_50
*896 FILLER_102_53
*897 FILLER_102_56
*898 FILLER_102_59
*899 FILLER_102_6
*900 FILLER_102_62
*901 FILLER_102_65
*902 FILLER_102_68
*903 FILLER_102_71
*904 FILLER_102_74
*905 FILLER_102_77
*906 FILLER_102_80
*907 FILLER_102_83
*908 FILLER_102_85
*909 FILLER_102_88
*910 FILLER_102_9
*911 FILLER_102_91
*912 FILLER_102_94
*913 FILLER_102_97
*914 FILLER_103_102
*915 FILLER_103_105
*916 FILLER_103_108
*917 FILLER_103_111
*918 FILLER_103_113
*919 FILLER_103_12
*920 FILLER_103_1208
*921 FILLER_103_1211
*922 FILLER_103_1214
*923 FILLER_103_1217
*924 FILLER_103_1220
*925 FILLER_103_1223
*926 FILLER_103_1226
*927 FILLER_103_1229
*928 FILLER_103_1232
*929 FILLER_103_1235
*930 FILLER_103_1238
*931 FILLER_103_1241
*932 FILLER_103_1244
*933 FILLER_103_1247
*934 FILLER_103_1250
*935 FILLER_103_1253
*936 FILLER_103_1256
*937 FILLER_103_1259
*938 FILLER_103_1262
*939 FILLER_103_1265
*940 FILLER_103_1268
*941 FILLER_103_1271
*942 FILLER_103_1274
*943 FILLER_103_1277
*944 FILLER_103_1280
*945 FILLER_103_1283
*946 FILLER_103_1286
*947 FILLER_103_1289
*948 FILLER_103_1292
*949 FILLER_103_1295
*950 FILLER_103_1298
*951 FILLER_103_1301
*952 FILLER_103_1304
*953 FILLER_103_1307
*954 FILLER_103_1310
*955 FILLER_103_1313
*956 FILLER_103_1316
*957 FILLER_103_1318
*958 FILLER_103_1321
*959 FILLER_103_1324
*960 FILLER_103_1327
*961 FILLER_103_1330
*962 FILLER_103_1333
*963 FILLER_103_1336
*964 FILLER_103_1339
*965 FILLER_103_1342
*966 FILLER_103_1345
*967 FILLER_103_1348
*968 FILLER_103_1353
*969 FILLER_103_1356
*970 FILLER_103_1359
*971 FILLER_103_1362
*972 FILLER_103_15
*973 FILLER_103_18
*974 FILLER_103_21
*975 FILLER_103_24
*976 FILLER_103_27
*977 FILLER_103_3
*978 FILLER_103_30
*979 FILLER_103_33
*980 FILLER_103_36
*981 FILLER_103_39
*982 FILLER_103_42
*983 FILLER_103_45
*984 FILLER_103_48
*985 FILLER_103_51
*986 FILLER_103_54
*987 FILLER_103_57
*988 FILLER_103_6
*989 FILLER_103_60
*990 FILLER_103_63
*991 FILLER_103_66
*992 FILLER_103_69
*993 FILLER_103_72
*994 FILLER_103_75
*995 FILLER_103_78
*996 FILLER_103_81
*997 FILLER_103_84
*998 FILLER_103_87
*999 FILLER_103_9
*1000 FILLER_103_90
*1001 FILLER_103_93
*1002 FILLER_103_96
*1003 FILLER_103_99
*1004 FILLER_104_100
*1005 FILLER_104_103
*1006 FILLER_104_106
*1007 FILLER_104_109
*1008 FILLER_104_112
*1009 FILLER_104_12
*1010 FILLER_104_1208
*1011 FILLER_104_1211
*1012 FILLER_104_1214
*1013 FILLER_104_1217
*1014 FILLER_104_1220
*1015 FILLER_104_1223
*1016 FILLER_104_1226
*1017 FILLER_104_1229
*1018 FILLER_104_1232
*1019 FILLER_104_1234
*1020 FILLER_104_1237
*1021 FILLER_104_1240
*1022 FILLER_104_1243
*1023 FILLER_104_1246
*1024 FILLER_104_1249
*1025 FILLER_104_1252
*1026 FILLER_104_1255
*1027 FILLER_104_1258
*1028 FILLER_104_1261
*1029 FILLER_104_1264
*1030 FILLER_104_1267
*1031 FILLER_104_1270
*1032 FILLER_104_1273
*1033 FILLER_104_1276
*1034 FILLER_104_1279
*1035 FILLER_104_1282
*1036 FILLER_104_1285
*1037 FILLER_104_1288
*1038 FILLER_104_1290
*1039 FILLER_104_1293
*1040 FILLER_104_1296
*1041 FILLER_104_1299
*1042 FILLER_104_1302
*1043 FILLER_104_1305
*1044 FILLER_104_1308
*1045 FILLER_104_1311
*1046 FILLER_104_1314
*1047 FILLER_104_1317
*1048 FILLER_104_1320
*1049 FILLER_104_1323
*1050 FILLER_104_1326
*1051 FILLER_104_1329
*1052 FILLER_104_1332
*1053 FILLER_104_1335
*1054 FILLER_104_1338
*1055 FILLER_104_1341
*1056 FILLER_104_1344
*1057 FILLER_104_1346
*1058 FILLER_104_1349
*1059 FILLER_104_1352
*1060 FILLER_104_1355
*1061 FILLER_104_1358
*1062 FILLER_104_1361
*1063 FILLER_104_15
*1064 FILLER_104_18
*1065 FILLER_104_21
*1066 FILLER_104_24
*1067 FILLER_104_27
*1068 FILLER_104_29
*1069 FILLER_104_3
*1070 FILLER_104_32
*1071 FILLER_104_35
*1072 FILLER_104_38
*1073 FILLER_104_41
*1074 FILLER_104_44
*1075 FILLER_104_47
*1076 FILLER_104_50
*1077 FILLER_104_53
*1078 FILLER_104_56
*1079 FILLER_104_59
*1080 FILLER_104_6
*1081 FILLER_104_62
*1082 FILLER_104_65
*1083 FILLER_104_68
*1084 FILLER_104_71
*1085 FILLER_104_74
*1086 FILLER_104_77
*1087 FILLER_104_80
*1088 FILLER_104_83
*1089 FILLER_104_85
*1090 FILLER_104_88
*1091 FILLER_104_9
*1092 FILLER_104_91
*1093 FILLER_104_94
*1094 FILLER_104_97
*1095 FILLER_105_102
*1096 FILLER_105_105
*1097 FILLER_105_108
*1098 FILLER_105_111
*1099 FILLER_105_113
*1100 FILLER_105_12
*1101 FILLER_105_1208
*1102 FILLER_105_1211
*1103 FILLER_105_1214
*1104 FILLER_105_1217
*1105 FILLER_105_1220
*1106 FILLER_105_1223
*1107 FILLER_105_1226
*1108 FILLER_105_1229
*1109 FILLER_105_1232
*1110 FILLER_105_1235
*1111 FILLER_105_1238
*1112 FILLER_105_1241
*1113 FILLER_105_1244
*1114 FILLER_105_1247
*1115 FILLER_105_1250
*1116 FILLER_105_1253
*1117 FILLER_105_1256
*1118 FILLER_105_1259
*1119 FILLER_105_1262
*1120 FILLER_105_1265
*1121 FILLER_105_1268
*1122 FILLER_105_1271
*1123 FILLER_105_1274
*1124 FILLER_105_1277
*1125 FILLER_105_1280
*1126 FILLER_105_1283
*1127 FILLER_105_1286
*1128 FILLER_105_1289
*1129 FILLER_105_1292
*1130 FILLER_105_1295
*1131 FILLER_105_1298
*1132 FILLER_105_1301
*1133 FILLER_105_1304
*1134 FILLER_105_1307
*1135 FILLER_105_1310
*1136 FILLER_105_1313
*1137 FILLER_105_1316
*1138 FILLER_105_1318
*1139 FILLER_105_1321
*1140 FILLER_105_1324
*1141 FILLER_105_1327
*1142 FILLER_105_1330
*1143 FILLER_105_1333
*1144 FILLER_105_1336
*1145 FILLER_105_1339
*1146 FILLER_105_1342
*1147 FILLER_105_1345
*1148 FILLER_105_1348
*1149 FILLER_105_1353
*1150 FILLER_105_1356
*1151 FILLER_105_1359
*1152 FILLER_105_1362
*1153 FILLER_105_15
*1154 FILLER_105_18
*1155 FILLER_105_21
*1156 FILLER_105_24
*1157 FILLER_105_27
*1158 FILLER_105_3
*1159 FILLER_105_30
*1160 FILLER_105_33
*1161 FILLER_105_36
*1162 FILLER_105_39
*1163 FILLER_105_42
*1164 FILLER_105_45
*1165 FILLER_105_48
*1166 FILLER_105_51
*1167 FILLER_105_54
*1168 FILLER_105_57
*1169 FILLER_105_6
*1170 FILLER_105_60
*1171 FILLER_105_63
*1172 FILLER_105_66
*1173 FILLER_105_69
*1174 FILLER_105_72
*1175 FILLER_105_75
*1176 FILLER_105_78
*1177 FILLER_105_81
*1178 FILLER_105_84
*1179 FILLER_105_87
*1180 FILLER_105_9
*1181 FILLER_105_90
*1182 FILLER_105_93
*1183 FILLER_105_96
*1184 FILLER_105_99
*1185 FILLER_106_100
*1186 FILLER_106_103
*1187 FILLER_106_106
*1188 FILLER_106_109
*1189 FILLER_106_112
*1190 FILLER_106_12
*1191 FILLER_106_1208
*1192 FILLER_106_1211
*1193 FILLER_106_1214
*1194 FILLER_106_1217
*1195 FILLER_106_1220
*1196 FILLER_106_1223
*1197 FILLER_106_1226
*1198 FILLER_106_1229
*1199 FILLER_106_1232
*1200 FILLER_106_1234
*1201 FILLER_106_1237
*1202 FILLER_106_1240
*1203 FILLER_106_1243
*1204 FILLER_106_1246
*1205 FILLER_106_1249
*1206 FILLER_106_1252
*1207 FILLER_106_1255
*1208 FILLER_106_1258
*1209 FILLER_106_1261
*1210 FILLER_106_1264
*1211 FILLER_106_1267
*1212 FILLER_106_1270
*1213 FILLER_106_1273
*1214 FILLER_106_1276
*1215 FILLER_106_1279
*1216 FILLER_106_1282
*1217 FILLER_106_1285
*1218 FILLER_106_1288
*1219 FILLER_106_1290
*1220 FILLER_106_1293
*1221 FILLER_106_1296
*1222 FILLER_106_1299
*1223 FILLER_106_1302
*1224 FILLER_106_1305
*1225 FILLER_106_1308
*1226 FILLER_106_1311
*1227 FILLER_106_1314
*1228 FILLER_106_1317
*1229 FILLER_106_1320
*1230 FILLER_106_1323
*1231 FILLER_106_1326
*1232 FILLER_106_1329
*1233 FILLER_106_1332
*1234 FILLER_106_1335
*1235 FILLER_106_1338
*1236 FILLER_106_1341
*1237 FILLER_106_1344
*1238 FILLER_106_1346
*1239 FILLER_106_1349
*1240 FILLER_106_1352
*1241 FILLER_106_1355
*1242 FILLER_106_1358
*1243 FILLER_106_1361
*1244 FILLER_106_15
*1245 FILLER_106_18
*1246 FILLER_106_21
*1247 FILLER_106_24
*1248 FILLER_106_27
*1249 FILLER_106_29
*1250 FILLER_106_3
*1251 FILLER_106_32
*1252 FILLER_106_35
*1253 FILLER_106_38
*1254 FILLER_106_41
*1255 FILLER_106_44
*1256 FILLER_106_47
*1257 FILLER_106_50
*1258 FILLER_106_53
*1259 FILLER_106_56
*1260 FILLER_106_59
*1261 FILLER_106_6
*1262 FILLER_106_62
*1263 FILLER_106_65
*1264 FILLER_106_68
*1265 FILLER_106_71
*1266 FILLER_106_74
*1267 FILLER_106_77
*1268 FILLER_106_80
*1269 FILLER_106_83
*1270 FILLER_106_85
*1271 FILLER_106_88
*1272 FILLER_106_9
*1273 FILLER_106_91
*1274 FILLER_106_94
*1275 FILLER_106_97
*1276 FILLER_107_102
*1277 FILLER_107_105
*1278 FILLER_107_108
*1279 FILLER_107_111
*1280 FILLER_107_113
*1281 FILLER_107_12
*1282 FILLER_107_1208
*1283 FILLER_107_1211
*1284 FILLER_107_1214
*1285 FILLER_107_1217
*1286 FILLER_107_1220
*1287 FILLER_107_1223
*1288 FILLER_107_1226
*1289 FILLER_107_1229
*1290 FILLER_107_1232
*1291 FILLER_107_1235
*1292 FILLER_107_1238
*1293 FILLER_107_1241
*1294 FILLER_107_1244
*1295 FILLER_107_1247
*1296 FILLER_107_1250
*1297 FILLER_107_1253
*1298 FILLER_107_1256
*1299 FILLER_107_1259
*1300 FILLER_107_1262
*1301 FILLER_107_1265
*1302 FILLER_107_1268
*1303 FILLER_107_1271
*1304 FILLER_107_1274
*1305 FILLER_107_1277
*1306 FILLER_107_1280
*1307 FILLER_107_1283
*1308 FILLER_107_1286
*1309 FILLER_107_1289
*1310 FILLER_107_1292
*1311 FILLER_107_1295
*1312 FILLER_107_1298
*1313 FILLER_107_1301
*1314 FILLER_107_1304
*1315 FILLER_107_1307
*1316 FILLER_107_1310
*1317 FILLER_107_1313
*1318 FILLER_107_1316
*1319 FILLER_107_1318
*1320 FILLER_107_1321
*1321 FILLER_107_1324
*1322 FILLER_107_1327
*1323 FILLER_107_1330
*1324 FILLER_107_1333
*1325 FILLER_107_1336
*1326 FILLER_107_1339
*1327 FILLER_107_1342
*1328 FILLER_107_1345
*1329 FILLER_107_1348
*1330 FILLER_107_1351
*1331 FILLER_107_1354
*1332 FILLER_107_1357
*1333 FILLER_107_1360
*1334 FILLER_107_1363
*1335 FILLER_107_15
*1336 FILLER_107_18
*1337 FILLER_107_21
*1338 FILLER_107_24
*1339 FILLER_107_27
*1340 FILLER_107_3
*1341 FILLER_107_30
*1342 FILLER_107_33
*1343 FILLER_107_36
*1344 FILLER_107_39
*1345 FILLER_107_42
*1346 FILLER_107_45
*1347 FILLER_107_48
*1348 FILLER_107_51
*1349 FILLER_107_54
*1350 FILLER_107_57
*1351 FILLER_107_6
*1352 FILLER_107_60
*1353 FILLER_107_63
*1354 FILLER_107_66
*1355 FILLER_107_69
*1356 FILLER_107_72
*1357 FILLER_107_75
*1358 FILLER_107_78
*1359 FILLER_107_81
*1360 FILLER_107_84
*1361 FILLER_107_87
*1362 FILLER_107_9
*1363 FILLER_107_90
*1364 FILLER_107_93
*1365 FILLER_107_96
*1366 FILLER_107_99
*1367 FILLER_108_100
*1368 FILLER_108_103
*1369 FILLER_108_106
*1370 FILLER_108_109
*1371 FILLER_108_112
*1372 FILLER_108_12
*1373 FILLER_108_1208
*1374 FILLER_108_1211
*1375 FILLER_108_1214
*1376 FILLER_108_1217
*1377 FILLER_108_1220
*1378 FILLER_108_1223
*1379 FILLER_108_1226
*1380 FILLER_108_1229
*1381 FILLER_108_1232
*1382 FILLER_108_1234
*1383 FILLER_108_1237
*1384 FILLER_108_1240
*1385 FILLER_108_1243
*1386 FILLER_108_1246
*1387 FILLER_108_1249
*1388 FILLER_108_1252
*1389 FILLER_108_1255
*1390 FILLER_108_1258
*1391 FILLER_108_1261
*1392 FILLER_108_1264
*1393 FILLER_108_1267
*1394 FILLER_108_1270
*1395 FILLER_108_1273
*1396 FILLER_108_1276
*1397 FILLER_108_1279
*1398 FILLER_108_1282
*1399 FILLER_108_1285
*1400 FILLER_108_1288
*1401 FILLER_108_1290
*1402 FILLER_108_1293
*1403 FILLER_108_1296
*1404 FILLER_108_1299
*1405 FILLER_108_1302
*1406 FILLER_108_1305
*1407 FILLER_108_1308
*1408 FILLER_108_1311
*1409 FILLER_108_1314
*1410 FILLER_108_1317
*1411 FILLER_108_1320
*1412 FILLER_108_1323
*1413 FILLER_108_1326
*1414 FILLER_108_1329
*1415 FILLER_108_1332
*1416 FILLER_108_1335
*1417 FILLER_108_1338
*1418 FILLER_108_1341
*1419 FILLER_108_1344
*1420 FILLER_108_1346
*1421 FILLER_108_1349
*1422 FILLER_108_1352
*1423 FILLER_108_1355
*1424 FILLER_108_1358
*1425 FILLER_108_1361
*1426 FILLER_108_15
*1427 FILLER_108_18
*1428 FILLER_108_21
*1429 FILLER_108_24
*1430 FILLER_108_27
*1431 FILLER_108_29
*1432 FILLER_108_3
*1433 FILLER_108_32
*1434 FILLER_108_35
*1435 FILLER_108_38
*1436 FILLER_108_41
*1437 FILLER_108_44
*1438 FILLER_108_47
*1439 FILLER_108_50
*1440 FILLER_108_53
*1441 FILLER_108_56
*1442 FILLER_108_59
*1443 FILLER_108_6
*1444 FILLER_108_62
*1445 FILLER_108_65
*1446 FILLER_108_68
*1447 FILLER_108_71
*1448 FILLER_108_74
*1449 FILLER_108_77
*1450 FILLER_108_80
*1451 FILLER_108_83
*1452 FILLER_108_85
*1453 FILLER_108_88
*1454 FILLER_108_9
*1455 FILLER_108_91
*1456 FILLER_108_94
*1457 FILLER_108_97
*1458 FILLER_109_102
*1459 FILLER_109_105
*1460 FILLER_109_108
*1461 FILLER_109_111
*1462 FILLER_109_113
*1463 FILLER_109_12
*1464 FILLER_109_1208
*1465 FILLER_109_1211
*1466 FILLER_109_1214
*1467 FILLER_109_1217
*1468 FILLER_109_1220
*1469 FILLER_109_1223
*1470 FILLER_109_1226
*1471 FILLER_109_1229
*1472 FILLER_109_1232
*1473 FILLER_109_1235
*1474 FILLER_109_1238
*1475 FILLER_109_1241
*1476 FILLER_109_1244
*1477 FILLER_109_1247
*1478 FILLER_109_1250
*1479 FILLER_109_1253
*1480 FILLER_109_1256
*1481 FILLER_109_1259
*1482 FILLER_109_1262
*1483 FILLER_109_1265
*1484 FILLER_109_1268
*1485 FILLER_109_1271
*1486 FILLER_109_1274
*1487 FILLER_109_1277
*1488 FILLER_109_1280
*1489 FILLER_109_1283
*1490 FILLER_109_1286
*1491 FILLER_109_1289
*1492 FILLER_109_1292
*1493 FILLER_109_1295
*1494 FILLER_109_1298
*1495 FILLER_109_1301
*1496 FILLER_109_1304
*1497 FILLER_109_1307
*1498 FILLER_109_1310
*1499 FILLER_109_1313
*1500 FILLER_109_1316
*1501 FILLER_109_1318
*1502 FILLER_109_1321
*1503 FILLER_109_1324
*1504 FILLER_109_1327
*1505 FILLER_109_1330
*1506 FILLER_109_1333
*1507 FILLER_109_1336
*1508 FILLER_109_1339
*1509 FILLER_109_1342
*1510 FILLER_109_1345
*1511 FILLER_109_1348
*1512 FILLER_109_1351
*1513 FILLER_109_1354
*1514 FILLER_109_1357
*1515 FILLER_109_1360
*1516 FILLER_109_1363
*1517 FILLER_109_15
*1518 FILLER_109_18
*1519 FILLER_109_21
*1520 FILLER_109_24
*1521 FILLER_109_27
*1522 FILLER_109_3
*1523 FILLER_109_30
*1524 FILLER_109_33
*1525 FILLER_109_36
*1526 FILLER_109_39
*1527 FILLER_109_42
*1528 FILLER_109_45
*1529 FILLER_109_48
*1530 FILLER_109_51
*1531 FILLER_109_54
*1532 FILLER_109_57
*1533 FILLER_109_6
*1534 FILLER_109_60
*1535 FILLER_109_63
*1536 FILLER_109_66
*1537 FILLER_109_69
*1538 FILLER_109_72
*1539 FILLER_109_75
*1540 FILLER_109_78
*1541 FILLER_109_81
*1542 FILLER_109_84
*1543 FILLER_109_87
*1544 FILLER_109_9
*1545 FILLER_109_90
*1546 FILLER_109_93
*1547 FILLER_109_96
*1548 FILLER_109_99
*1549 FILLER_10_100
*1550 FILLER_10_1002
*1551 FILLER_10_1005
*1552 FILLER_10_1008
*1553 FILLER_10_1011
*1554 FILLER_10_1014
*1555 FILLER_10_1017
*1556 FILLER_10_1020
*1557 FILLER_10_1023
*1558 FILLER_10_1026
*1559 FILLER_10_1029
*1560 FILLER_10_103
*1561 FILLER_10_1032
*1562 FILLER_10_1035
*1563 FILLER_10_1037
*1564 FILLER_10_1040
*1565 FILLER_10_1043
*1566 FILLER_10_1046
*1567 FILLER_10_1049
*1568 FILLER_10_1052
*1569 FILLER_10_1055
*1570 FILLER_10_1058
*1571 FILLER_10_106
*1572 FILLER_10_1061
*1573 FILLER_10_1064
*1574 FILLER_10_1067
*1575 FILLER_10_1070
*1576 FILLER_10_1073
*1577 FILLER_10_1076
*1578 FILLER_10_1079
*1579 FILLER_10_1082
*1580 FILLER_10_1085
*1581 FILLER_10_1088
*1582 FILLER_10_109
*1583 FILLER_10_1091
*1584 FILLER_10_1093
*1585 FILLER_10_1096
*1586 FILLER_10_1099
*1587 FILLER_10_1102
*1588 FILLER_10_1105
*1589 FILLER_10_1108
*1590 FILLER_10_1111
*1591 FILLER_10_1114
*1592 FILLER_10_1117
*1593 FILLER_10_112
*1594 FILLER_10_1120
*1595 FILLER_10_1123
*1596 FILLER_10_1126
*1597 FILLER_10_1129
*1598 FILLER_10_1132
*1599 FILLER_10_1135
*1600 FILLER_10_1138
*1601 FILLER_10_1141
*1602 FILLER_10_1144
*1603 FILLER_10_1147
*1604 FILLER_10_1149
*1605 FILLER_10_115
*1606 FILLER_10_1152
*1607 FILLER_10_1155
*1608 FILLER_10_1158
*1609 FILLER_10_1161
*1610 FILLER_10_1164
*1611 FILLER_10_1167
*1612 FILLER_10_1170
*1613 FILLER_10_1173
*1614 FILLER_10_1176
*1615 FILLER_10_1179
*1616 FILLER_10_118
*1617 FILLER_10_1182
*1618 FILLER_10_1185
*1619 FILLER_10_1188
*1620 FILLER_10_1191
*1621 FILLER_10_1194
*1622 FILLER_10_1197
*1623 FILLER_10_12
*1624 FILLER_10_1200
*1625 FILLER_10_1203
*1626 FILLER_10_1205
*1627 FILLER_10_1208
*1628 FILLER_10_121
*1629 FILLER_10_1211
*1630 FILLER_10_1214
*1631 FILLER_10_1217
*1632 FILLER_10_1220
*1633 FILLER_10_1223
*1634 FILLER_10_1226
*1635 FILLER_10_1229
*1636 FILLER_10_1232
*1637 FILLER_10_1235
*1638 FILLER_10_1238
*1639 FILLER_10_124
*1640 FILLER_10_1241
*1641 FILLER_10_1244
*1642 FILLER_10_1247
*1643 FILLER_10_1250
*1644 FILLER_10_1253
*1645 FILLER_10_1256
*1646 FILLER_10_1259
*1647 FILLER_10_1261
*1648 FILLER_10_1264
*1649 FILLER_10_1267
*1650 FILLER_10_127
*1651 FILLER_10_1270
*1652 FILLER_10_1273
*1653 FILLER_10_1276
*1654 FILLER_10_1279
*1655 FILLER_10_1282
*1656 FILLER_10_1285
*1657 FILLER_10_1288
*1658 FILLER_10_1291
*1659 FILLER_10_1294
*1660 FILLER_10_1297
*1661 FILLER_10_130
*1662 FILLER_10_1300
*1663 FILLER_10_1303
*1664 FILLER_10_1306
*1665 FILLER_10_1309
*1666 FILLER_10_1312
*1667 FILLER_10_1315
*1668 FILLER_10_1317
*1669 FILLER_10_1320
*1670 FILLER_10_1323
*1671 FILLER_10_1326
*1672 FILLER_10_1329
*1673 FILLER_10_133
*1674 FILLER_10_1332
*1675 FILLER_10_1335
*1676 FILLER_10_1338
*1677 FILLER_10_1341
*1678 FILLER_10_1344
*1679 FILLER_10_1347
*1680 FILLER_10_1350
*1681 FILLER_10_1353
*1682 FILLER_10_1356
*1683 FILLER_10_1359
*1684 FILLER_10_136
*1685 FILLER_10_1362
*1686 FILLER_10_139
*1687 FILLER_10_141
*1688 FILLER_10_144
*1689 FILLER_10_147
*1690 FILLER_10_15
*1691 FILLER_10_150
*1692 FILLER_10_153
*1693 FILLER_10_156
*1694 FILLER_10_159
*1695 FILLER_10_162
*1696 FILLER_10_165
*1697 FILLER_10_168
*1698 FILLER_10_171
*1699 FILLER_10_174
*1700 FILLER_10_177
*1701 FILLER_10_18
*1702 FILLER_10_180
*1703 FILLER_10_183
*1704 FILLER_10_186
*1705 FILLER_10_189
*1706 FILLER_10_192
*1707 FILLER_10_195
*1708 FILLER_10_197
*1709 FILLER_10_200
*1710 FILLER_10_203
*1711 FILLER_10_206
*1712 FILLER_10_209
*1713 FILLER_10_21
*1714 FILLER_10_212
*1715 FILLER_10_215
*1716 FILLER_10_218
*1717 FILLER_10_221
*1718 FILLER_10_224
*1719 FILLER_10_227
*1720 FILLER_10_230
*1721 FILLER_10_233
*1722 FILLER_10_236
*1723 FILLER_10_239
*1724 FILLER_10_24
*1725 FILLER_10_242
*1726 FILLER_10_245
*1727 FILLER_10_248
*1728 FILLER_10_251
*1729 FILLER_10_253
*1730 FILLER_10_256
*1731 FILLER_10_259
*1732 FILLER_10_262
*1733 FILLER_10_265
*1734 FILLER_10_268
*1735 FILLER_10_27
*1736 FILLER_10_271
*1737 FILLER_10_274
*1738 FILLER_10_277
*1739 FILLER_10_280
*1740 FILLER_10_283
*1741 FILLER_10_286
*1742 FILLER_10_289
*1743 FILLER_10_29
*1744 FILLER_10_292
*1745 FILLER_10_295
*1746 FILLER_10_298
*1747 FILLER_10_3
*1748 FILLER_10_301
*1749 FILLER_10_304
*1750 FILLER_10_307
*1751 FILLER_10_309
*1752 FILLER_10_312
*1753 FILLER_10_315
*1754 FILLER_10_318
*1755 FILLER_10_32
*1756 FILLER_10_321
*1757 FILLER_10_324
*1758 FILLER_10_327
*1759 FILLER_10_330
*1760 FILLER_10_333
*1761 FILLER_10_336
*1762 FILLER_10_339
*1763 FILLER_10_342
*1764 FILLER_10_345
*1765 FILLER_10_348
*1766 FILLER_10_35
*1767 FILLER_10_351
*1768 FILLER_10_354
*1769 FILLER_10_357
*1770 FILLER_10_360
*1771 FILLER_10_363
*1772 FILLER_10_365
*1773 FILLER_10_368
*1774 FILLER_10_371
*1775 FILLER_10_374
*1776 FILLER_10_377
*1777 FILLER_10_38
*1778 FILLER_10_380
*1779 FILLER_10_383
*1780 FILLER_10_386
*1781 FILLER_10_389
*1782 FILLER_10_392
*1783 FILLER_10_395
*1784 FILLER_10_398
*1785 FILLER_10_401
*1786 FILLER_10_404
*1787 FILLER_10_407
*1788 FILLER_10_41
*1789 FILLER_10_410
*1790 FILLER_10_413
*1791 FILLER_10_416
*1792 FILLER_10_419
*1793 FILLER_10_421
*1794 FILLER_10_424
*1795 FILLER_10_427
*1796 FILLER_10_430
*1797 FILLER_10_433
*1798 FILLER_10_436
*1799 FILLER_10_439
*1800 FILLER_10_44
*1801 FILLER_10_442
*1802 FILLER_10_445
*1803 FILLER_10_448
*1804 FILLER_10_451
*1805 FILLER_10_454
*1806 FILLER_10_457
*1807 FILLER_10_460
*1808 FILLER_10_463
*1809 FILLER_10_466
*1810 FILLER_10_469
*1811 FILLER_10_47
*1812 FILLER_10_472
*1813 FILLER_10_475
*1814 FILLER_10_477
*1815 FILLER_10_480
*1816 FILLER_10_483
*1817 FILLER_10_486
*1818 FILLER_10_489
*1819 FILLER_10_492
*1820 FILLER_10_495
*1821 FILLER_10_498
*1822 FILLER_10_50
*1823 FILLER_10_501
*1824 FILLER_10_504
*1825 FILLER_10_507
*1826 FILLER_10_510
*1827 FILLER_10_513
*1828 FILLER_10_516
*1829 FILLER_10_519
*1830 FILLER_10_522
*1831 FILLER_10_525
*1832 FILLER_10_528
*1833 FILLER_10_53
*1834 FILLER_10_531
*1835 FILLER_10_533
*1836 FILLER_10_536
*1837 FILLER_10_539
*1838 FILLER_10_542
*1839 FILLER_10_545
*1840 FILLER_10_548
*1841 FILLER_10_551
*1842 FILLER_10_554
*1843 FILLER_10_557
*1844 FILLER_10_56
*1845 FILLER_10_560
*1846 FILLER_10_563
*1847 FILLER_10_566
*1848 FILLER_10_569
*1849 FILLER_10_572
*1850 FILLER_10_575
*1851 FILLER_10_578
*1852 FILLER_10_581
*1853 FILLER_10_584
*1854 FILLER_10_587
*1855 FILLER_10_589
*1856 FILLER_10_59
*1857 FILLER_10_592
*1858 FILLER_10_595
*1859 FILLER_10_598
*1860 FILLER_10_6
*1861 FILLER_10_601
*1862 FILLER_10_604
*1863 FILLER_10_607
*1864 FILLER_10_610
*1865 FILLER_10_613
*1866 FILLER_10_616
*1867 FILLER_10_619
*1868 FILLER_10_62
*1869 FILLER_10_622
*1870 FILLER_10_625
*1871 FILLER_10_628
*1872 FILLER_10_631
*1873 FILLER_10_634
*1874 FILLER_10_637
*1875 FILLER_10_640
*1876 FILLER_10_643
*1877 FILLER_10_645
*1878 FILLER_10_648
*1879 FILLER_10_65
*1880 FILLER_10_651
*1881 FILLER_10_654
*1882 FILLER_10_657
*1883 FILLER_10_660
*1884 FILLER_10_663
*1885 FILLER_10_666
*1886 FILLER_10_669
*1887 FILLER_10_672
*1888 FILLER_10_675
*1889 FILLER_10_678
*1890 FILLER_10_68
*1891 FILLER_10_681
*1892 FILLER_10_684
*1893 FILLER_10_687
*1894 FILLER_10_690
*1895 FILLER_10_693
*1896 FILLER_10_696
*1897 FILLER_10_699
*1898 FILLER_10_701
*1899 FILLER_10_704
*1900 FILLER_10_707
*1901 FILLER_10_71
*1902 FILLER_10_710
*1903 FILLER_10_713
*1904 FILLER_10_716
*1905 FILLER_10_719
*1906 FILLER_10_722
*1907 FILLER_10_725
*1908 FILLER_10_728
*1909 FILLER_10_731
*1910 FILLER_10_734
*1911 FILLER_10_737
*1912 FILLER_10_74
*1913 FILLER_10_740
*1914 FILLER_10_743
*1915 FILLER_10_746
*1916 FILLER_10_749
*1917 FILLER_10_752
*1918 FILLER_10_755
*1919 FILLER_10_757
*1920 FILLER_10_760
*1921 FILLER_10_763
*1922 FILLER_10_766
*1923 FILLER_10_769
*1924 FILLER_10_77
*1925 FILLER_10_772
*1926 FILLER_10_775
*1927 FILLER_10_778
*1928 FILLER_10_781
*1929 FILLER_10_784
*1930 FILLER_10_787
*1931 FILLER_10_790
*1932 FILLER_10_793
*1933 FILLER_10_796
*1934 FILLER_10_799
*1935 FILLER_10_80
*1936 FILLER_10_802
*1937 FILLER_10_805
*1938 FILLER_10_808
*1939 FILLER_10_811
*1940 FILLER_10_813
*1941 FILLER_10_816
*1942 FILLER_10_819
*1943 FILLER_10_822
*1944 FILLER_10_825
*1945 FILLER_10_828
*1946 FILLER_10_83
*1947 FILLER_10_831
*1948 FILLER_10_834
*1949 FILLER_10_837
*1950 FILLER_10_840
*1951 FILLER_10_843
*1952 FILLER_10_846
*1953 FILLER_10_849
*1954 FILLER_10_85
*1955 FILLER_10_852
*1956 FILLER_10_855
*1957 FILLER_10_858
*1958 FILLER_10_861
*1959 FILLER_10_864
*1960 FILLER_10_867
*1961 FILLER_10_869
*1962 FILLER_10_872
*1963 FILLER_10_875
*1964 FILLER_10_878
*1965 FILLER_10_88
*1966 FILLER_10_881
*1967 FILLER_10_884
*1968 FILLER_10_887
*1969 FILLER_10_890
*1970 FILLER_10_893
*1971 FILLER_10_896
*1972 FILLER_10_899
*1973 FILLER_10_9
*1974 FILLER_10_902
*1975 FILLER_10_905
*1976 FILLER_10_908
*1977 FILLER_10_91
*1978 FILLER_10_911
*1979 FILLER_10_914
*1980 FILLER_10_917
*1981 FILLER_10_920
*1982 FILLER_10_923
*1983 FILLER_10_925
*1984 FILLER_10_928
*1985 FILLER_10_931
*1986 FILLER_10_934
*1987 FILLER_10_937
*1988 FILLER_10_94
*1989 FILLER_10_940
*1990 FILLER_10_943
*1991 FILLER_10_946
*1992 FILLER_10_949
*1993 FILLER_10_952
*1994 FILLER_10_955
*1995 FILLER_10_958
*1996 FILLER_10_961
*1997 FILLER_10_964
*1998 FILLER_10_967
*1999 FILLER_10_97
*2000 FILLER_10_970
*2001 FILLER_10_973
*2002 FILLER_10_976
*2003 FILLER_10_979
*2004 FILLER_10_981
*2005 FILLER_10_984
*2006 FILLER_10_987
*2007 FILLER_10_990
*2008 FILLER_10_993
*2009 FILLER_10_996
*2010 FILLER_10_999
*2011 FILLER_110_100
*2012 FILLER_110_103
*2013 FILLER_110_106
*2014 FILLER_110_109
*2015 FILLER_110_112
*2016 FILLER_110_12
*2017 FILLER_110_1208
*2018 FILLER_110_1211
*2019 FILLER_110_1214
*2020 FILLER_110_1217
*2021 FILLER_110_1220
*2022 FILLER_110_1223
*2023 FILLER_110_1226
*2024 FILLER_110_1229
*2025 FILLER_110_1232
*2026 FILLER_110_1234
*2027 FILLER_110_1237
*2028 FILLER_110_1240
*2029 FILLER_110_1243
*2030 FILLER_110_1246
*2031 FILLER_110_1249
*2032 FILLER_110_1252
*2033 FILLER_110_1255
*2034 FILLER_110_1258
*2035 FILLER_110_1261
*2036 FILLER_110_1264
*2037 FILLER_110_1267
*2038 FILLER_110_1270
*2039 FILLER_110_1273
*2040 FILLER_110_1276
*2041 FILLER_110_1279
*2042 FILLER_110_1282
*2043 FILLER_110_1285
*2044 FILLER_110_1288
*2045 FILLER_110_1290
*2046 FILLER_110_1293
*2047 FILLER_110_1296
*2048 FILLER_110_1299
*2049 FILLER_110_1302
*2050 FILLER_110_1305
*2051 FILLER_110_1308
*2052 FILLER_110_1311
*2053 FILLER_110_1314
*2054 FILLER_110_1317
*2055 FILLER_110_1320
*2056 FILLER_110_1323
*2057 FILLER_110_1326
*2058 FILLER_110_1329
*2059 FILLER_110_1332
*2060 FILLER_110_1335
*2061 FILLER_110_1338
*2062 FILLER_110_1341
*2063 FILLER_110_1344
*2064 FILLER_110_1346
*2065 FILLER_110_1349
*2066 FILLER_110_1352
*2067 FILLER_110_1355
*2068 FILLER_110_1358
*2069 FILLER_110_1361
*2070 FILLER_110_15
*2071 FILLER_110_18
*2072 FILLER_110_21
*2073 FILLER_110_24
*2074 FILLER_110_27
*2075 FILLER_110_29
*2076 FILLER_110_3
*2077 FILLER_110_32
*2078 FILLER_110_35
*2079 FILLER_110_38
*2080 FILLER_110_41
*2081 FILLER_110_44
*2082 FILLER_110_47
*2083 FILLER_110_50
*2084 FILLER_110_53
*2085 FILLER_110_56
*2086 FILLER_110_59
*2087 FILLER_110_6
*2088 FILLER_110_62
*2089 FILLER_110_65
*2090 FILLER_110_68
*2091 FILLER_110_71
*2092 FILLER_110_74
*2093 FILLER_110_77
*2094 FILLER_110_80
*2095 FILLER_110_83
*2096 FILLER_110_85
*2097 FILLER_110_88
*2098 FILLER_110_9
*2099 FILLER_110_91
*2100 FILLER_110_94
*2101 FILLER_110_97
*2102 FILLER_111_102
*2103 FILLER_111_105
*2104 FILLER_111_108
*2105 FILLER_111_111
*2106 FILLER_111_113
*2107 FILLER_111_12
*2108 FILLER_111_1208
*2109 FILLER_111_1211
*2110 FILLER_111_1214
*2111 FILLER_111_1217
*2112 FILLER_111_1220
*2113 FILLER_111_1223
*2114 FILLER_111_1226
*2115 FILLER_111_1229
*2116 FILLER_111_1232
*2117 FILLER_111_1235
*2118 FILLER_111_1238
*2119 FILLER_111_1241
*2120 FILLER_111_1244
*2121 FILLER_111_1247
*2122 FILLER_111_1250
*2123 FILLER_111_1253
*2124 FILLER_111_1256
*2125 FILLER_111_1259
*2126 FILLER_111_1262
*2127 FILLER_111_1265
*2128 FILLER_111_1268
*2129 FILLER_111_1271
*2130 FILLER_111_1274
*2131 FILLER_111_1277
*2132 FILLER_111_1280
*2133 FILLER_111_1283
*2134 FILLER_111_1286
*2135 FILLER_111_1289
*2136 FILLER_111_1292
*2137 FILLER_111_1295
*2138 FILLER_111_1298
*2139 FILLER_111_1301
*2140 FILLER_111_1304
*2141 FILLER_111_1307
*2142 FILLER_111_1310
*2143 FILLER_111_1313
*2144 FILLER_111_1316
*2145 FILLER_111_1318
*2146 FILLER_111_1321
*2147 FILLER_111_1324
*2148 FILLER_111_1327
*2149 FILLER_111_1330
*2150 FILLER_111_1333
*2151 FILLER_111_1336
*2152 FILLER_111_1339
*2153 FILLER_111_1342
*2154 FILLER_111_1345
*2155 FILLER_111_1348
*2156 FILLER_111_1351
*2157 FILLER_111_1354
*2158 FILLER_111_1357
*2159 FILLER_111_1360
*2160 FILLER_111_1363
*2161 FILLER_111_15
*2162 FILLER_111_18
*2163 FILLER_111_21
*2164 FILLER_111_24
*2165 FILLER_111_27
*2166 FILLER_111_3
*2167 FILLER_111_30
*2168 FILLER_111_33
*2169 FILLER_111_36
*2170 FILLER_111_39
*2171 FILLER_111_42
*2172 FILLER_111_45
*2173 FILLER_111_48
*2174 FILLER_111_51
*2175 FILLER_111_54
*2176 FILLER_111_57
*2177 FILLER_111_6
*2178 FILLER_111_60
*2179 FILLER_111_63
*2180 FILLER_111_66
*2181 FILLER_111_69
*2182 FILLER_111_72
*2183 FILLER_111_75
*2184 FILLER_111_78
*2185 FILLER_111_81
*2186 FILLER_111_84
*2187 FILLER_111_87
*2188 FILLER_111_9
*2189 FILLER_111_90
*2190 FILLER_111_93
*2191 FILLER_111_96
*2192 FILLER_111_99
*2193 FILLER_112_100
*2194 FILLER_112_103
*2195 FILLER_112_106
*2196 FILLER_112_109
*2197 FILLER_112_112
*2198 FILLER_112_12
*2199 FILLER_112_1208
*2200 FILLER_112_1211
*2201 FILLER_112_1214
*2202 FILLER_112_1217
*2203 FILLER_112_1220
*2204 FILLER_112_1223
*2205 FILLER_112_1226
*2206 FILLER_112_1229
*2207 FILLER_112_1232
*2208 FILLER_112_1234
*2209 FILLER_112_1237
*2210 FILLER_112_1240
*2211 FILLER_112_1243
*2212 FILLER_112_1246
*2213 FILLER_112_1249
*2214 FILLER_112_1252
*2215 FILLER_112_1255
*2216 FILLER_112_1258
*2217 FILLER_112_1261
*2218 FILLER_112_1264
*2219 FILLER_112_1267
*2220 FILLER_112_1270
*2221 FILLER_112_1273
*2222 FILLER_112_1276
*2223 FILLER_112_1279
*2224 FILLER_112_1282
*2225 FILLER_112_1285
*2226 FILLER_112_1288
*2227 FILLER_112_1290
*2228 FILLER_112_1293
*2229 FILLER_112_1296
*2230 FILLER_112_1299
*2231 FILLER_112_1302
*2232 FILLER_112_1305
*2233 FILLER_112_1308
*2234 FILLER_112_1311
*2235 FILLER_112_1314
*2236 FILLER_112_1317
*2237 FILLER_112_1320
*2238 FILLER_112_1323
*2239 FILLER_112_1326
*2240 FILLER_112_1329
*2241 FILLER_112_1332
*2242 FILLER_112_1335
*2243 FILLER_112_1338
*2244 FILLER_112_1341
*2245 FILLER_112_1344
*2246 FILLER_112_1346
*2247 FILLER_112_1349
*2248 FILLER_112_1352
*2249 FILLER_112_1355
*2250 FILLER_112_1358
*2251 FILLER_112_1361
*2252 FILLER_112_15
*2253 FILLER_112_18
*2254 FILLER_112_21
*2255 FILLER_112_24
*2256 FILLER_112_27
*2257 FILLER_112_29
*2258 FILLER_112_3
*2259 FILLER_112_32
*2260 FILLER_112_35
*2261 FILLER_112_38
*2262 FILLER_112_41
*2263 FILLER_112_44
*2264 FILLER_112_47
*2265 FILLER_112_50
*2266 FILLER_112_53
*2267 FILLER_112_56
*2268 FILLER_112_59
*2269 FILLER_112_6
*2270 FILLER_112_62
*2271 FILLER_112_65
*2272 FILLER_112_68
*2273 FILLER_112_71
*2274 FILLER_112_74
*2275 FILLER_112_77
*2276 FILLER_112_80
*2277 FILLER_112_83
*2278 FILLER_112_85
*2279 FILLER_112_88
*2280 FILLER_112_9
*2281 FILLER_112_91
*2282 FILLER_112_94
*2283 FILLER_112_97
*2284 FILLER_113_102
*2285 FILLER_113_105
*2286 FILLER_113_108
*2287 FILLER_113_111
*2288 FILLER_113_113
*2289 FILLER_113_12
*2290 FILLER_113_1208
*2291 FILLER_113_1211
*2292 FILLER_113_1214
*2293 FILLER_113_1217
*2294 FILLER_113_1220
*2295 FILLER_113_1223
*2296 FILLER_113_1226
*2297 FILLER_113_1229
*2298 FILLER_113_1232
*2299 FILLER_113_1235
*2300 FILLER_113_1238
*2301 FILLER_113_1241
*2302 FILLER_113_1244
*2303 FILLER_113_1247
*2304 FILLER_113_1250
*2305 FILLER_113_1253
*2306 FILLER_113_1256
*2307 FILLER_113_1259
*2308 FILLER_113_1262
*2309 FILLER_113_1265
*2310 FILLER_113_1268
*2311 FILLER_113_1271
*2312 FILLER_113_1274
*2313 FILLER_113_1277
*2314 FILLER_113_1280
*2315 FILLER_113_1283
*2316 FILLER_113_1286
*2317 FILLER_113_1289
*2318 FILLER_113_1292
*2319 FILLER_113_1295
*2320 FILLER_113_1298
*2321 FILLER_113_1301
*2322 FILLER_113_1304
*2323 FILLER_113_1307
*2324 FILLER_113_1310
*2325 FILLER_113_1313
*2326 FILLER_113_1316
*2327 FILLER_113_1318
*2328 FILLER_113_1321
*2329 FILLER_113_1324
*2330 FILLER_113_1327
*2331 FILLER_113_1330
*2332 FILLER_113_1333
*2333 FILLER_113_1336
*2334 FILLER_113_1339
*2335 FILLER_113_1342
*2336 FILLER_113_1345
*2337 FILLER_113_1348
*2338 FILLER_113_1351
*2339 FILLER_113_1354
*2340 FILLER_113_1357
*2341 FILLER_113_1360
*2342 FILLER_113_1363
*2343 FILLER_113_15
*2344 FILLER_113_18
*2345 FILLER_113_21
*2346 FILLER_113_24
*2347 FILLER_113_27
*2348 FILLER_113_3
*2349 FILLER_113_30
*2350 FILLER_113_33
*2351 FILLER_113_36
*2352 FILLER_113_39
*2353 FILLER_113_42
*2354 FILLER_113_45
*2355 FILLER_113_48
*2356 FILLER_113_51
*2357 FILLER_113_54
*2358 FILLER_113_57
*2359 FILLER_113_6
*2360 FILLER_113_60
*2361 FILLER_113_63
*2362 FILLER_113_66
*2363 FILLER_113_69
*2364 FILLER_113_72
*2365 FILLER_113_75
*2366 FILLER_113_78
*2367 FILLER_113_81
*2368 FILLER_113_84
*2369 FILLER_113_87
*2370 FILLER_113_9
*2371 FILLER_113_90
*2372 FILLER_113_93
*2373 FILLER_113_96
*2374 FILLER_113_99
*2375 FILLER_114_100
*2376 FILLER_114_103
*2377 FILLER_114_106
*2378 FILLER_114_109
*2379 FILLER_114_112
*2380 FILLER_114_12
*2381 FILLER_114_1208
*2382 FILLER_114_1211
*2383 FILLER_114_1214
*2384 FILLER_114_1217
*2385 FILLER_114_1220
*2386 FILLER_114_1223
*2387 FILLER_114_1226
*2388 FILLER_114_1229
*2389 FILLER_114_1232
*2390 FILLER_114_1234
*2391 FILLER_114_1237
*2392 FILLER_114_1240
*2393 FILLER_114_1243
*2394 FILLER_114_1246
*2395 FILLER_114_1249
*2396 FILLER_114_1252
*2397 FILLER_114_1255
*2398 FILLER_114_1258
*2399 FILLER_114_1261
*2400 FILLER_114_1264
*2401 FILLER_114_1267
*2402 FILLER_114_1270
*2403 FILLER_114_1273
*2404 FILLER_114_1276
*2405 FILLER_114_1279
*2406 FILLER_114_1282
*2407 FILLER_114_1285
*2408 FILLER_114_1288
*2409 FILLER_114_1290
*2410 FILLER_114_1293
*2411 FILLER_114_1296
*2412 FILLER_114_1299
*2413 FILLER_114_1302
*2414 FILLER_114_1305
*2415 FILLER_114_1308
*2416 FILLER_114_1311
*2417 FILLER_114_1314
*2418 FILLER_114_1317
*2419 FILLER_114_1320
*2420 FILLER_114_1323
*2421 FILLER_114_1326
*2422 FILLER_114_1329
*2423 FILLER_114_1332
*2424 FILLER_114_1335
*2425 FILLER_114_1338
*2426 FILLER_114_1341
*2427 FILLER_114_1344
*2428 FILLER_114_1346
*2429 FILLER_114_1349
*2430 FILLER_114_1352
*2431 FILLER_114_1355
*2432 FILLER_114_1358
*2433 FILLER_114_1361
*2434 FILLER_114_15
*2435 FILLER_114_18
*2436 FILLER_114_21
*2437 FILLER_114_24
*2438 FILLER_114_27
*2439 FILLER_114_29
*2440 FILLER_114_3
*2441 FILLER_114_32
*2442 FILLER_114_35
*2443 FILLER_114_38
*2444 FILLER_114_41
*2445 FILLER_114_44
*2446 FILLER_114_47
*2447 FILLER_114_50
*2448 FILLER_114_53
*2449 FILLER_114_56
*2450 FILLER_114_59
*2451 FILLER_114_6
*2452 FILLER_114_62
*2453 FILLER_114_65
*2454 FILLER_114_68
*2455 FILLER_114_71
*2456 FILLER_114_74
*2457 FILLER_114_77
*2458 FILLER_114_80
*2459 FILLER_114_83
*2460 FILLER_114_85
*2461 FILLER_114_88
*2462 FILLER_114_9
*2463 FILLER_114_91
*2464 FILLER_114_94
*2465 FILLER_114_97
*2466 FILLER_115_102
*2467 FILLER_115_105
*2468 FILLER_115_108
*2469 FILLER_115_111
*2470 FILLER_115_113
*2471 FILLER_115_12
*2472 FILLER_115_1208
*2473 FILLER_115_1211
*2474 FILLER_115_1214
*2475 FILLER_115_1217
*2476 FILLER_115_1220
*2477 FILLER_115_1223
*2478 FILLER_115_1226
*2479 FILLER_115_1229
*2480 FILLER_115_1232
*2481 FILLER_115_1235
*2482 FILLER_115_1238
*2483 FILLER_115_1241
*2484 FILLER_115_1244
*2485 FILLER_115_1247
*2486 FILLER_115_1250
*2487 FILLER_115_1253
*2488 FILLER_115_1256
*2489 FILLER_115_1259
*2490 FILLER_115_1262
*2491 FILLER_115_1265
*2492 FILLER_115_1268
*2493 FILLER_115_1271
*2494 FILLER_115_1274
*2495 FILLER_115_1277
*2496 FILLER_115_1280
*2497 FILLER_115_1283
*2498 FILLER_115_1286
*2499 FILLER_115_1289
*2500 FILLER_115_1292
*2501 FILLER_115_1295
*2502 FILLER_115_1298
*2503 FILLER_115_1301
*2504 FILLER_115_1304
*2505 FILLER_115_1307
*2506 FILLER_115_1310
*2507 FILLER_115_1313
*2508 FILLER_115_1316
*2509 FILLER_115_1318
*2510 FILLER_115_1321
*2511 FILLER_115_1324
*2512 FILLER_115_1327
*2513 FILLER_115_1330
*2514 FILLER_115_1333
*2515 FILLER_115_1336
*2516 FILLER_115_1339
*2517 FILLER_115_1342
*2518 FILLER_115_1345
*2519 FILLER_115_1348
*2520 FILLER_115_1351
*2521 FILLER_115_1354
*2522 FILLER_115_1357
*2523 FILLER_115_1360
*2524 FILLER_115_1363
*2525 FILLER_115_15
*2526 FILLER_115_18
*2527 FILLER_115_21
*2528 FILLER_115_24
*2529 FILLER_115_27
*2530 FILLER_115_3
*2531 FILLER_115_30
*2532 FILLER_115_33
*2533 FILLER_115_36
*2534 FILLER_115_39
*2535 FILLER_115_42
*2536 FILLER_115_45
*2537 FILLER_115_48
*2538 FILLER_115_51
*2539 FILLER_115_54
*2540 FILLER_115_57
*2541 FILLER_115_6
*2542 FILLER_115_60
*2543 FILLER_115_63
*2544 FILLER_115_66
*2545 FILLER_115_69
*2546 FILLER_115_72
*2547 FILLER_115_75
*2548 FILLER_115_78
*2549 FILLER_115_81
*2550 FILLER_115_84
*2551 FILLER_115_87
*2552 FILLER_115_9
*2553 FILLER_115_90
*2554 FILLER_115_93
*2555 FILLER_115_96
*2556 FILLER_115_99
*2557 FILLER_116_100
*2558 FILLER_116_103
*2559 FILLER_116_106
*2560 FILLER_116_109
*2561 FILLER_116_112
*2562 FILLER_116_12
*2563 FILLER_116_1208
*2564 FILLER_116_1211
*2565 FILLER_116_1214
*2566 FILLER_116_1217
*2567 FILLER_116_1220
*2568 FILLER_116_1223
*2569 FILLER_116_1226
*2570 FILLER_116_1229
*2571 FILLER_116_1232
*2572 FILLER_116_1234
*2573 FILLER_116_1237
*2574 FILLER_116_1240
*2575 FILLER_116_1243
*2576 FILLER_116_1246
*2577 FILLER_116_1249
*2578 FILLER_116_1252
*2579 FILLER_116_1255
*2580 FILLER_116_1258
*2581 FILLER_116_1261
*2582 FILLER_116_1264
*2583 FILLER_116_1267
*2584 FILLER_116_1270
*2585 FILLER_116_1273
*2586 FILLER_116_1276
*2587 FILLER_116_1279
*2588 FILLER_116_1282
*2589 FILLER_116_1285
*2590 FILLER_116_1288
*2591 FILLER_116_1290
*2592 FILLER_116_1293
*2593 FILLER_116_1296
*2594 FILLER_116_1299
*2595 FILLER_116_1302
*2596 FILLER_116_1305
*2597 FILLER_116_1308
*2598 FILLER_116_1311
*2599 FILLER_116_1314
*2600 FILLER_116_1317
*2601 FILLER_116_1320
*2602 FILLER_116_1323
*2603 FILLER_116_1326
*2604 FILLER_116_1329
*2605 FILLER_116_1332
*2606 FILLER_116_1335
*2607 FILLER_116_1338
*2608 FILLER_116_1341
*2609 FILLER_116_1344
*2610 FILLER_116_1346
*2611 FILLER_116_1349
*2612 FILLER_116_1352
*2613 FILLER_116_1355
*2614 FILLER_116_1358
*2615 FILLER_116_1361
*2616 FILLER_116_15
*2617 FILLER_116_18
*2618 FILLER_116_21
*2619 FILLER_116_24
*2620 FILLER_116_27
*2621 FILLER_116_29
*2622 FILLER_116_3
*2623 FILLER_116_32
*2624 FILLER_116_35
*2625 FILLER_116_38
*2626 FILLER_116_41
*2627 FILLER_116_44
*2628 FILLER_116_47
*2629 FILLER_116_50
*2630 FILLER_116_53
*2631 FILLER_116_56
*2632 FILLER_116_59
*2633 FILLER_116_6
*2634 FILLER_116_62
*2635 FILLER_116_65
*2636 FILLER_116_68
*2637 FILLER_116_71
*2638 FILLER_116_74
*2639 FILLER_116_77
*2640 FILLER_116_80
*2641 FILLER_116_83
*2642 FILLER_116_85
*2643 FILLER_116_88
*2644 FILLER_116_9
*2645 FILLER_116_91
*2646 FILLER_116_94
*2647 FILLER_116_97
*2648 FILLER_117_102
*2649 FILLER_117_105
*2650 FILLER_117_108
*2651 FILLER_117_111
*2652 FILLER_117_113
*2653 FILLER_117_12
*2654 FILLER_117_1208
*2655 FILLER_117_1211
*2656 FILLER_117_1214
*2657 FILLER_117_1217
*2658 FILLER_117_1220
*2659 FILLER_117_1223
*2660 FILLER_117_1226
*2661 FILLER_117_1229
*2662 FILLER_117_1232
*2663 FILLER_117_1235
*2664 FILLER_117_1238
*2665 FILLER_117_1241
*2666 FILLER_117_1244
*2667 FILLER_117_1247
*2668 FILLER_117_1250
*2669 FILLER_117_1253
*2670 FILLER_117_1256
*2671 FILLER_117_1259
*2672 FILLER_117_1262
*2673 FILLER_117_1265
*2674 FILLER_117_1268
*2675 FILLER_117_1271
*2676 FILLER_117_1274
*2677 FILLER_117_1277
*2678 FILLER_117_1280
*2679 FILLER_117_1283
*2680 FILLER_117_1286
*2681 FILLER_117_1289
*2682 FILLER_117_1292
*2683 FILLER_117_1295
*2684 FILLER_117_1298
*2685 FILLER_117_1301
*2686 FILLER_117_1304
*2687 FILLER_117_1307
*2688 FILLER_117_1310
*2689 FILLER_117_1313
*2690 FILLER_117_1316
*2691 FILLER_117_1318
*2692 FILLER_117_1321
*2693 FILLER_117_1324
*2694 FILLER_117_1327
*2695 FILLER_117_1330
*2696 FILLER_117_1333
*2697 FILLER_117_1336
*2698 FILLER_117_1339
*2699 FILLER_117_1342
*2700 FILLER_117_1345
*2701 FILLER_117_1348
*2702 FILLER_117_1351
*2703 FILLER_117_1354
*2704 FILLER_117_1357
*2705 FILLER_117_1360
*2706 FILLER_117_1363
*2707 FILLER_117_15
*2708 FILLER_117_18
*2709 FILLER_117_21
*2710 FILLER_117_24
*2711 FILLER_117_27
*2712 FILLER_117_3
*2713 FILLER_117_30
*2714 FILLER_117_33
*2715 FILLER_117_36
*2716 FILLER_117_39
*2717 FILLER_117_42
*2718 FILLER_117_45
*2719 FILLER_117_48
*2720 FILLER_117_51
*2721 FILLER_117_54
*2722 FILLER_117_57
*2723 FILLER_117_6
*2724 FILLER_117_60
*2725 FILLER_117_63
*2726 FILLER_117_66
*2727 FILLER_117_69
*2728 FILLER_117_72
*2729 FILLER_117_75
*2730 FILLER_117_78
*2731 FILLER_117_81
*2732 FILLER_117_84
*2733 FILLER_117_87
*2734 FILLER_117_9
*2735 FILLER_117_90
*2736 FILLER_117_93
*2737 FILLER_117_96
*2738 FILLER_117_99
*2739 FILLER_118_100
*2740 FILLER_118_103
*2741 FILLER_118_106
*2742 FILLER_118_109
*2743 FILLER_118_112
*2744 FILLER_118_12
*2745 FILLER_118_1208
*2746 FILLER_118_1211
*2747 FILLER_118_1214
*2748 FILLER_118_1217
*2749 FILLER_118_1220
*2750 FILLER_118_1223
*2751 FILLER_118_1226
*2752 FILLER_118_1229
*2753 FILLER_118_1232
*2754 FILLER_118_1234
*2755 FILLER_118_1237
*2756 FILLER_118_1240
*2757 FILLER_118_1243
*2758 FILLER_118_1246
*2759 FILLER_118_1249
*2760 FILLER_118_1252
*2761 FILLER_118_1255
*2762 FILLER_118_1258
*2763 FILLER_118_1261
*2764 FILLER_118_1264
*2765 FILLER_118_1267
*2766 FILLER_118_1270
*2767 FILLER_118_1273
*2768 FILLER_118_1276
*2769 FILLER_118_1279
*2770 FILLER_118_1282
*2771 FILLER_118_1285
*2772 FILLER_118_1288
*2773 FILLER_118_1290
*2774 FILLER_118_1293
*2775 FILLER_118_1296
*2776 FILLER_118_1299
*2777 FILLER_118_1302
*2778 FILLER_118_1305
*2779 FILLER_118_1308
*2780 FILLER_118_1311
*2781 FILLER_118_1314
*2782 FILLER_118_1317
*2783 FILLER_118_1320
*2784 FILLER_118_1323
*2785 FILLER_118_1326
*2786 FILLER_118_1329
*2787 FILLER_118_1332
*2788 FILLER_118_1335
*2789 FILLER_118_1338
*2790 FILLER_118_1341
*2791 FILLER_118_1344
*2792 FILLER_118_1346
*2793 FILLER_118_1349
*2794 FILLER_118_1353
*2795 FILLER_118_1356
*2796 FILLER_118_1359
*2797 FILLER_118_1362
*2798 FILLER_118_15
*2799 FILLER_118_18
*2800 FILLER_118_21
*2801 FILLER_118_24
*2802 FILLER_118_27
*2803 FILLER_118_29
*2804 FILLER_118_3
*2805 FILLER_118_32
*2806 FILLER_118_35
*2807 FILLER_118_38
*2808 FILLER_118_41
*2809 FILLER_118_44
*2810 FILLER_118_47
*2811 FILLER_118_50
*2812 FILLER_118_53
*2813 FILLER_118_56
*2814 FILLER_118_59
*2815 FILLER_118_6
*2816 FILLER_118_62
*2817 FILLER_118_65
*2818 FILLER_118_68
*2819 FILLER_118_71
*2820 FILLER_118_74
*2821 FILLER_118_77
*2822 FILLER_118_80
*2823 FILLER_118_83
*2824 FILLER_118_85
*2825 FILLER_118_88
*2826 FILLER_118_9
*2827 FILLER_118_91
*2828 FILLER_118_94
*2829 FILLER_118_97
*2830 FILLER_119_102
*2831 FILLER_119_105
*2832 FILLER_119_108
*2833 FILLER_119_111
*2834 FILLER_119_113
*2835 FILLER_119_12
*2836 FILLER_119_1208
*2837 FILLER_119_1211
*2838 FILLER_119_1214
*2839 FILLER_119_1217
*2840 FILLER_119_1220
*2841 FILLER_119_1223
*2842 FILLER_119_1226
*2843 FILLER_119_1229
*2844 FILLER_119_1232
*2845 FILLER_119_1235
*2846 FILLER_119_1238
*2847 FILLER_119_1241
*2848 FILLER_119_1244
*2849 FILLER_119_1247
*2850 FILLER_119_1250
*2851 FILLER_119_1253
*2852 FILLER_119_1256
*2853 FILLER_119_1259
*2854 FILLER_119_1262
*2855 FILLER_119_1265
*2856 FILLER_119_1268
*2857 FILLER_119_1271
*2858 FILLER_119_1274
*2859 FILLER_119_1277
*2860 FILLER_119_1280
*2861 FILLER_119_1283
*2862 FILLER_119_1286
*2863 FILLER_119_1289
*2864 FILLER_119_1292
*2865 FILLER_119_1295
*2866 FILLER_119_1298
*2867 FILLER_119_1301
*2868 FILLER_119_1304
*2869 FILLER_119_1307
*2870 FILLER_119_1310
*2871 FILLER_119_1313
*2872 FILLER_119_1316
*2873 FILLER_119_1318
*2874 FILLER_119_1321
*2875 FILLER_119_1324
*2876 FILLER_119_1327
*2877 FILLER_119_1330
*2878 FILLER_119_1333
*2879 FILLER_119_1336
*2880 FILLER_119_1339
*2881 FILLER_119_1342
*2882 FILLER_119_1345
*2883 FILLER_119_1348
*2884 FILLER_119_1351
*2885 FILLER_119_1354
*2886 FILLER_119_1357
*2887 FILLER_119_1360
*2888 FILLER_119_1363
*2889 FILLER_119_15
*2890 FILLER_119_18
*2891 FILLER_119_21
*2892 FILLER_119_24
*2893 FILLER_119_27
*2894 FILLER_119_3
*2895 FILLER_119_30
*2896 FILLER_119_33
*2897 FILLER_119_36
*2898 FILLER_119_39
*2899 FILLER_119_42
*2900 FILLER_119_45
*2901 FILLER_119_48
*2902 FILLER_119_51
*2903 FILLER_119_54
*2904 FILLER_119_57
*2905 FILLER_119_6
*2906 FILLER_119_60
*2907 FILLER_119_63
*2908 FILLER_119_66
*2909 FILLER_119_69
*2910 FILLER_119_72
*2911 FILLER_119_75
*2912 FILLER_119_78
*2913 FILLER_119_81
*2914 FILLER_119_84
*2915 FILLER_119_87
*2916 FILLER_119_9
*2917 FILLER_119_90
*2918 FILLER_119_93
*2919 FILLER_119_96
*2920 FILLER_119_99
*2921 FILLER_11_1001
*2922 FILLER_11_1004
*2923 FILLER_11_1007
*2924 FILLER_11_1009
*2925 FILLER_11_1012
*2926 FILLER_11_1015
*2927 FILLER_11_1018
*2928 FILLER_11_102
*2929 FILLER_11_1021
*2930 FILLER_11_1024
*2931 FILLER_11_1027
*2932 FILLER_11_1030
*2933 FILLER_11_1033
*2934 FILLER_11_1036
*2935 FILLER_11_1039
*2936 FILLER_11_1042
*2937 FILLER_11_1045
*2938 FILLER_11_1048
*2939 FILLER_11_105
*2940 FILLER_11_1051
*2941 FILLER_11_1054
*2942 FILLER_11_1057
*2943 FILLER_11_1060
*2944 FILLER_11_1063
*2945 FILLER_11_1065
*2946 FILLER_11_1068
*2947 FILLER_11_1071
*2948 FILLER_11_1074
*2949 FILLER_11_1077
*2950 FILLER_11_108
*2951 FILLER_11_1080
*2952 FILLER_11_1083
*2953 FILLER_11_1086
*2954 FILLER_11_1089
*2955 FILLER_11_1092
*2956 FILLER_11_1095
*2957 FILLER_11_1098
*2958 FILLER_11_1101
*2959 FILLER_11_1104
*2960 FILLER_11_1107
*2961 FILLER_11_111
*2962 FILLER_11_1110
*2963 FILLER_11_1113
*2964 FILLER_11_1116
*2965 FILLER_11_1119
*2966 FILLER_11_1121
*2967 FILLER_11_1124
*2968 FILLER_11_1127
*2969 FILLER_11_113
*2970 FILLER_11_1130
*2971 FILLER_11_1133
*2972 FILLER_11_1136
*2973 FILLER_11_1139
*2974 FILLER_11_1142
*2975 FILLER_11_1145
*2976 FILLER_11_1148
*2977 FILLER_11_1151
*2978 FILLER_11_1154
*2979 FILLER_11_1157
*2980 FILLER_11_116
*2981 FILLER_11_1160
*2982 FILLER_11_1163
*2983 FILLER_11_1166
*2984 FILLER_11_1169
*2985 FILLER_11_1172
*2986 FILLER_11_1175
*2987 FILLER_11_1177
*2988 FILLER_11_1180
*2989 FILLER_11_1183
*2990 FILLER_11_1186
*2991 FILLER_11_1189
*2992 FILLER_11_119
*2993 FILLER_11_1192
*2994 FILLER_11_1195
*2995 FILLER_11_1198
*2996 FILLER_11_12
*2997 FILLER_11_1201
*2998 FILLER_11_1204
*2999 FILLER_11_1207
*3000 FILLER_11_1210
*3001 FILLER_11_1213
*3002 FILLER_11_1216
*3003 FILLER_11_1219
*3004 FILLER_11_122
*3005 FILLER_11_1222
*3006 FILLER_11_1225
*3007 FILLER_11_1228
*3008 FILLER_11_1231
*3009 FILLER_11_1233
*3010 FILLER_11_1236
*3011 FILLER_11_1239
*3012 FILLER_11_1242
*3013 FILLER_11_1245
*3014 FILLER_11_1248
*3015 FILLER_11_125
*3016 FILLER_11_1251
*3017 FILLER_11_1254
*3018 FILLER_11_1257
*3019 FILLER_11_1260
*3020 FILLER_11_1263
*3021 FILLER_11_1266
*3022 FILLER_11_1269
*3023 FILLER_11_1272
*3024 FILLER_11_1275
*3025 FILLER_11_1278
*3026 FILLER_11_128
*3027 FILLER_11_1281
*3028 FILLER_11_1284
*3029 FILLER_11_1287
*3030 FILLER_11_1289
*3031 FILLER_11_1292
*3032 FILLER_11_1295
*3033 FILLER_11_1298
*3034 FILLER_11_1301
*3035 FILLER_11_1304
*3036 FILLER_11_1307
*3037 FILLER_11_131
*3038 FILLER_11_1310
*3039 FILLER_11_1313
*3040 FILLER_11_1316
*3041 FILLER_11_1319
*3042 FILLER_11_1322
*3043 FILLER_11_1325
*3044 FILLER_11_1328
*3045 FILLER_11_1331
*3046 FILLER_11_1334
*3047 FILLER_11_1337
*3048 FILLER_11_134
*3049 FILLER_11_1340
*3050 FILLER_11_1343
*3051 FILLER_11_1345
*3052 FILLER_11_1348
*3053 FILLER_11_1351
*3054 FILLER_11_1354
*3055 FILLER_11_1357
*3056 FILLER_11_1360
*3057 FILLER_11_1363
*3058 FILLER_11_137
*3059 FILLER_11_140
*3060 FILLER_11_143
*3061 FILLER_11_146
*3062 FILLER_11_149
*3063 FILLER_11_15
*3064 FILLER_11_152
*3065 FILLER_11_155
*3066 FILLER_11_158
*3067 FILLER_11_161
*3068 FILLER_11_164
*3069 FILLER_11_167
*3070 FILLER_11_169
*3071 FILLER_11_172
*3072 FILLER_11_175
*3073 FILLER_11_178
*3074 FILLER_11_18
*3075 FILLER_11_181
*3076 FILLER_11_184
*3077 FILLER_11_187
*3078 FILLER_11_190
*3079 FILLER_11_193
*3080 FILLER_11_196
*3081 FILLER_11_199
*3082 FILLER_11_202
*3083 FILLER_11_205
*3084 FILLER_11_208
*3085 FILLER_11_21
*3086 FILLER_11_211
*3087 FILLER_11_214
*3088 FILLER_11_217
*3089 FILLER_11_220
*3090 FILLER_11_223
*3091 FILLER_11_225
*3092 FILLER_11_228
*3093 FILLER_11_231
*3094 FILLER_11_234
*3095 FILLER_11_237
*3096 FILLER_11_24
*3097 FILLER_11_240
*3098 FILLER_11_243
*3099 FILLER_11_246
*3100 FILLER_11_249
*3101 FILLER_11_252
*3102 FILLER_11_255
*3103 FILLER_11_258
*3104 FILLER_11_261
*3105 FILLER_11_264
*3106 FILLER_11_267
*3107 FILLER_11_27
*3108 FILLER_11_270
*3109 FILLER_11_273
*3110 FILLER_11_281
*3111 FILLER_11_284
*3112 FILLER_11_292
*3113 FILLER_11_295
*3114 FILLER_11_298
*3115 FILLER_11_3
*3116 FILLER_11_30
*3117 FILLER_11_301
*3118 FILLER_11_310
*3119 FILLER_11_313
*3120 FILLER_11_320
*3121 FILLER_11_323
*3122 FILLER_11_326
*3123 FILLER_11_329
*3124 FILLER_11_33
*3125 FILLER_11_332
*3126 FILLER_11_335
*3127 FILLER_11_337
*3128 FILLER_11_340
*3129 FILLER_11_343
*3130 FILLER_11_346
*3131 FILLER_11_349
*3132 FILLER_11_352
*3133 FILLER_11_355
*3134 FILLER_11_358
*3135 FILLER_11_36
*3136 FILLER_11_361
*3137 FILLER_11_364
*3138 FILLER_11_367
*3139 FILLER_11_370
*3140 FILLER_11_373
*3141 FILLER_11_376
*3142 FILLER_11_379
*3143 FILLER_11_382
*3144 FILLER_11_385
*3145 FILLER_11_388
*3146 FILLER_11_39
*3147 FILLER_11_391
*3148 FILLER_11_393
*3149 FILLER_11_396
*3150 FILLER_11_399
*3151 FILLER_11_402
*3152 FILLER_11_405
*3153 FILLER_11_408
*3154 FILLER_11_411
*3155 FILLER_11_414
*3156 FILLER_11_417
*3157 FILLER_11_42
*3158 FILLER_11_420
*3159 FILLER_11_423
*3160 FILLER_11_426
*3161 FILLER_11_429
*3162 FILLER_11_432
*3163 FILLER_11_435
*3164 FILLER_11_438
*3165 FILLER_11_441
*3166 FILLER_11_444
*3167 FILLER_11_447
*3168 FILLER_11_449
*3169 FILLER_11_45
*3170 FILLER_11_452
*3171 FILLER_11_455
*3172 FILLER_11_458
*3173 FILLER_11_461
*3174 FILLER_11_464
*3175 FILLER_11_467
*3176 FILLER_11_470
*3177 FILLER_11_473
*3178 FILLER_11_476
*3179 FILLER_11_479
*3180 FILLER_11_48
*3181 FILLER_11_482
*3182 FILLER_11_485
*3183 FILLER_11_488
*3184 FILLER_11_491
*3185 FILLER_11_494
*3186 FILLER_11_497
*3187 FILLER_11_500
*3188 FILLER_11_503
*3189 FILLER_11_505
*3190 FILLER_11_508
*3191 FILLER_11_51
*3192 FILLER_11_511
*3193 FILLER_11_514
*3194 FILLER_11_517
*3195 FILLER_11_520
*3196 FILLER_11_523
*3197 FILLER_11_526
*3198 FILLER_11_529
*3199 FILLER_11_532
*3200 FILLER_11_535
*3201 FILLER_11_538
*3202 FILLER_11_54
*3203 FILLER_11_541
*3204 FILLER_11_544
*3205 FILLER_11_547
*3206 FILLER_11_550
*3207 FILLER_11_553
*3208 FILLER_11_556
*3209 FILLER_11_559
*3210 FILLER_11_561
*3211 FILLER_11_564
*3212 FILLER_11_567
*3213 FILLER_11_57
*3214 FILLER_11_570
*3215 FILLER_11_573
*3216 FILLER_11_576
*3217 FILLER_11_579
*3218 FILLER_11_582
*3219 FILLER_11_585
*3220 FILLER_11_588
*3221 FILLER_11_591
*3222 FILLER_11_594
*3223 FILLER_11_597
*3224 FILLER_11_6
*3225 FILLER_11_60
*3226 FILLER_11_600
*3227 FILLER_11_603
*3228 FILLER_11_606
*3229 FILLER_11_609
*3230 FILLER_11_612
*3231 FILLER_11_615
*3232 FILLER_11_617
*3233 FILLER_11_620
*3234 FILLER_11_623
*3235 FILLER_11_626
*3236 FILLER_11_629
*3237 FILLER_11_63
*3238 FILLER_11_632
*3239 FILLER_11_635
*3240 FILLER_11_638
*3241 FILLER_11_641
*3242 FILLER_11_644
*3243 FILLER_11_647
*3244 FILLER_11_650
*3245 FILLER_11_653
*3246 FILLER_11_656
*3247 FILLER_11_659
*3248 FILLER_11_66
*3249 FILLER_11_662
*3250 FILLER_11_665
*3251 FILLER_11_668
*3252 FILLER_11_671
*3253 FILLER_11_673
*3254 FILLER_11_676
*3255 FILLER_11_679
*3256 FILLER_11_682
*3257 FILLER_11_685
*3258 FILLER_11_688
*3259 FILLER_11_69
*3260 FILLER_11_691
*3261 FILLER_11_694
*3262 FILLER_11_697
*3263 FILLER_11_700
*3264 FILLER_11_703
*3265 FILLER_11_706
*3266 FILLER_11_709
*3267 FILLER_11_712
*3268 FILLER_11_715
*3269 FILLER_11_718
*3270 FILLER_11_72
*3271 FILLER_11_721
*3272 FILLER_11_724
*3273 FILLER_11_727
*3274 FILLER_11_729
*3275 FILLER_11_732
*3276 FILLER_11_735
*3277 FILLER_11_738
*3278 FILLER_11_741
*3279 FILLER_11_744
*3280 FILLER_11_747
*3281 FILLER_11_75
*3282 FILLER_11_750
*3283 FILLER_11_753
*3284 FILLER_11_756
*3285 FILLER_11_759
*3286 FILLER_11_762
*3287 FILLER_11_765
*3288 FILLER_11_768
*3289 FILLER_11_771
*3290 FILLER_11_774
*3291 FILLER_11_777
*3292 FILLER_11_78
*3293 FILLER_11_780
*3294 FILLER_11_783
*3295 FILLER_11_785
*3296 FILLER_11_788
*3297 FILLER_11_791
*3298 FILLER_11_794
*3299 FILLER_11_797
*3300 FILLER_11_800
*3301 FILLER_11_803
*3302 FILLER_11_806
*3303 FILLER_11_809
*3304 FILLER_11_81
*3305 FILLER_11_812
*3306 FILLER_11_815
*3307 FILLER_11_818
*3308 FILLER_11_821
*3309 FILLER_11_824
*3310 FILLER_11_827
*3311 FILLER_11_830
*3312 FILLER_11_833
*3313 FILLER_11_836
*3314 FILLER_11_839
*3315 FILLER_11_84
*3316 FILLER_11_841
*3317 FILLER_11_844
*3318 FILLER_11_847
*3319 FILLER_11_850
*3320 FILLER_11_853
*3321 FILLER_11_856
*3322 FILLER_11_859
*3323 FILLER_11_862
*3324 FILLER_11_865
*3325 FILLER_11_868
*3326 FILLER_11_87
*3327 FILLER_11_871
*3328 FILLER_11_874
*3329 FILLER_11_877
*3330 FILLER_11_880
*3331 FILLER_11_883
*3332 FILLER_11_886
*3333 FILLER_11_889
*3334 FILLER_11_892
*3335 FILLER_11_895
*3336 FILLER_11_897
*3337 FILLER_11_9
*3338 FILLER_11_90
*3339 FILLER_11_900
*3340 FILLER_11_903
*3341 FILLER_11_906
*3342 FILLER_11_909
*3343 FILLER_11_912
*3344 FILLER_11_915
*3345 FILLER_11_918
*3346 FILLER_11_921
*3347 FILLER_11_924
*3348 FILLER_11_927
*3349 FILLER_11_93
*3350 FILLER_11_930
*3351 FILLER_11_933
*3352 FILLER_11_936
*3353 FILLER_11_939
*3354 FILLER_11_942
*3355 FILLER_11_945
*3356 FILLER_11_948
*3357 FILLER_11_951
*3358 FILLER_11_953
*3359 FILLER_11_956
*3360 FILLER_11_959
*3361 FILLER_11_96
*3362 FILLER_11_962
*3363 FILLER_11_965
*3364 FILLER_11_968
*3365 FILLER_11_971
*3366 FILLER_11_974
*3367 FILLER_11_977
*3368 FILLER_11_980
*3369 FILLER_11_983
*3370 FILLER_11_986
*3371 FILLER_11_989
*3372 FILLER_11_99
*3373 FILLER_11_992
*3374 FILLER_11_995
*3375 FILLER_11_998
*3376 FILLER_120_100
*3377 FILLER_120_103
*3378 FILLER_120_106
*3379 FILLER_120_109
*3380 FILLER_120_112
*3381 FILLER_120_12
*3382 FILLER_120_1208
*3383 FILLER_120_1211
*3384 FILLER_120_1214
*3385 FILLER_120_1217
*3386 FILLER_120_1220
*3387 FILLER_120_1223
*3388 FILLER_120_1226
*3389 FILLER_120_1229
*3390 FILLER_120_1232
*3391 FILLER_120_1234
*3392 FILLER_120_1237
*3393 FILLER_120_1240
*3394 FILLER_120_1243
*3395 FILLER_120_1246
*3396 FILLER_120_1249
*3397 FILLER_120_1252
*3398 FILLER_120_1255
*3399 FILLER_120_1258
*3400 FILLER_120_1261
*3401 FILLER_120_1264
*3402 FILLER_120_1267
*3403 FILLER_120_1270
*3404 FILLER_120_1273
*3405 FILLER_120_1276
*3406 FILLER_120_1279
*3407 FILLER_120_1282
*3408 FILLER_120_1285
*3409 FILLER_120_1288
*3410 FILLER_120_1290
*3411 FILLER_120_1293
*3412 FILLER_120_1296
*3413 FILLER_120_1299
*3414 FILLER_120_1302
*3415 FILLER_120_1305
*3416 FILLER_120_1308
*3417 FILLER_120_1311
*3418 FILLER_120_1314
*3419 FILLER_120_1317
*3420 FILLER_120_1320
*3421 FILLER_120_1323
*3422 FILLER_120_1326
*3423 FILLER_120_1329
*3424 FILLER_120_1332
*3425 FILLER_120_1335
*3426 FILLER_120_1338
*3427 FILLER_120_1341
*3428 FILLER_120_1344
*3429 FILLER_120_1346
*3430 FILLER_120_1349
*3431 FILLER_120_1352
*3432 FILLER_120_1355
*3433 FILLER_120_1358
*3434 FILLER_120_1361
*3435 FILLER_120_15
*3436 FILLER_120_18
*3437 FILLER_120_21
*3438 FILLER_120_24
*3439 FILLER_120_27
*3440 FILLER_120_29
*3441 FILLER_120_3
*3442 FILLER_120_32
*3443 FILLER_120_35
*3444 FILLER_120_38
*3445 FILLER_120_41
*3446 FILLER_120_44
*3447 FILLER_120_47
*3448 FILLER_120_50
*3449 FILLER_120_53
*3450 FILLER_120_56
*3451 FILLER_120_59
*3452 FILLER_120_6
*3453 FILLER_120_62
*3454 FILLER_120_65
*3455 FILLER_120_68
*3456 FILLER_120_71
*3457 FILLER_120_74
*3458 FILLER_120_77
*3459 FILLER_120_80
*3460 FILLER_120_83
*3461 FILLER_120_85
*3462 FILLER_120_88
*3463 FILLER_120_9
*3464 FILLER_120_91
*3465 FILLER_120_94
*3466 FILLER_120_97
*3467 FILLER_121_102
*3468 FILLER_121_105
*3469 FILLER_121_108
*3470 FILLER_121_111
*3471 FILLER_121_113
*3472 FILLER_121_12
*3473 FILLER_121_1208
*3474 FILLER_121_1211
*3475 FILLER_121_1214
*3476 FILLER_121_1217
*3477 FILLER_121_1220
*3478 FILLER_121_1223
*3479 FILLER_121_1226
*3480 FILLER_121_1229
*3481 FILLER_121_1232
*3482 FILLER_121_1235
*3483 FILLER_121_1238
*3484 FILLER_121_1241
*3485 FILLER_121_1244
*3486 FILLER_121_1247
*3487 FILLER_121_1250
*3488 FILLER_121_1253
*3489 FILLER_121_1256
*3490 FILLER_121_1259
*3491 FILLER_121_1262
*3492 FILLER_121_1265
*3493 FILLER_121_1268
*3494 FILLER_121_1271
*3495 FILLER_121_1274
*3496 FILLER_121_1277
*3497 FILLER_121_1280
*3498 FILLER_121_1283
*3499 FILLER_121_1286
*3500 FILLER_121_1289
*3501 FILLER_121_1292
*3502 FILLER_121_1295
*3503 FILLER_121_1298
*3504 FILLER_121_1301
*3505 FILLER_121_1304
*3506 FILLER_121_1307
*3507 FILLER_121_1310
*3508 FILLER_121_1313
*3509 FILLER_121_1316
*3510 FILLER_121_1318
*3511 FILLER_121_1321
*3512 FILLER_121_1324
*3513 FILLER_121_1327
*3514 FILLER_121_1330
*3515 FILLER_121_1333
*3516 FILLER_121_1336
*3517 FILLER_121_1339
*3518 FILLER_121_1342
*3519 FILLER_121_1345
*3520 FILLER_121_1348
*3521 FILLER_121_1351
*3522 FILLER_121_1354
*3523 FILLER_121_1357
*3524 FILLER_121_1360
*3525 FILLER_121_1363
*3526 FILLER_121_15
*3527 FILLER_121_18
*3528 FILLER_121_21
*3529 FILLER_121_24
*3530 FILLER_121_27
*3531 FILLER_121_3
*3532 FILLER_121_30
*3533 FILLER_121_33
*3534 FILLER_121_36
*3535 FILLER_121_39
*3536 FILLER_121_42
*3537 FILLER_121_45
*3538 FILLER_121_48
*3539 FILLER_121_51
*3540 FILLER_121_54
*3541 FILLER_121_57
*3542 FILLER_121_6
*3543 FILLER_121_60
*3544 FILLER_121_63
*3545 FILLER_121_66
*3546 FILLER_121_69
*3547 FILLER_121_72
*3548 FILLER_121_75
*3549 FILLER_121_78
*3550 FILLER_121_81
*3551 FILLER_121_84
*3552 FILLER_121_87
*3553 FILLER_121_9
*3554 FILLER_121_90
*3555 FILLER_121_93
*3556 FILLER_121_96
*3557 FILLER_121_99
*3558 FILLER_122_100
*3559 FILLER_122_103
*3560 FILLER_122_106
*3561 FILLER_122_109
*3562 FILLER_122_112
*3563 FILLER_122_12
*3564 FILLER_122_1208
*3565 FILLER_122_1211
*3566 FILLER_122_1214
*3567 FILLER_122_1217
*3568 FILLER_122_1220
*3569 FILLER_122_1223
*3570 FILLER_122_1226
*3571 FILLER_122_1229
*3572 FILLER_122_1232
*3573 FILLER_122_1234
*3574 FILLER_122_1237
*3575 FILLER_122_1240
*3576 FILLER_122_1243
*3577 FILLER_122_1246
*3578 FILLER_122_1249
*3579 FILLER_122_1252
*3580 FILLER_122_1255
*3581 FILLER_122_1258
*3582 FILLER_122_1261
*3583 FILLER_122_1264
*3584 FILLER_122_1267
*3585 FILLER_122_1270
*3586 FILLER_122_1273
*3587 FILLER_122_1276
*3588 FILLER_122_1279
*3589 FILLER_122_1282
*3590 FILLER_122_1285
*3591 FILLER_122_1288
*3592 FILLER_122_1290
*3593 FILLER_122_1293
*3594 FILLER_122_1296
*3595 FILLER_122_1299
*3596 FILLER_122_1302
*3597 FILLER_122_1305
*3598 FILLER_122_1308
*3599 FILLER_122_1311
*3600 FILLER_122_1314
*3601 FILLER_122_1317
*3602 FILLER_122_1320
*3603 FILLER_122_1323
*3604 FILLER_122_1326
*3605 FILLER_122_1329
*3606 FILLER_122_1332
*3607 FILLER_122_1335
*3608 FILLER_122_1338
*3609 FILLER_122_1341
*3610 FILLER_122_1344
*3611 FILLER_122_1346
*3612 FILLER_122_1349
*3613 FILLER_122_1352
*3614 FILLER_122_1355
*3615 FILLER_122_1358
*3616 FILLER_122_1361
*3617 FILLER_122_15
*3618 FILLER_122_18
*3619 FILLER_122_21
*3620 FILLER_122_24
*3621 FILLER_122_27
*3622 FILLER_122_29
*3623 FILLER_122_3
*3624 FILLER_122_32
*3625 FILLER_122_35
*3626 FILLER_122_38
*3627 FILLER_122_41
*3628 FILLER_122_44
*3629 FILLER_122_47
*3630 FILLER_122_50
*3631 FILLER_122_53
*3632 FILLER_122_56
*3633 FILLER_122_59
*3634 FILLER_122_6
*3635 FILLER_122_62
*3636 FILLER_122_65
*3637 FILLER_122_68
*3638 FILLER_122_71
*3639 FILLER_122_74
*3640 FILLER_122_77
*3641 FILLER_122_80
*3642 FILLER_122_83
*3643 FILLER_122_85
*3644 FILLER_122_88
*3645 FILLER_122_9
*3646 FILLER_122_91
*3647 FILLER_122_94
*3648 FILLER_122_97
*3649 FILLER_123_102
*3650 FILLER_123_105
*3651 FILLER_123_108
*3652 FILLER_123_111
*3653 FILLER_123_113
*3654 FILLER_123_12
*3655 FILLER_123_1208
*3656 FILLER_123_1211
*3657 FILLER_123_1214
*3658 FILLER_123_1217
*3659 FILLER_123_1220
*3660 FILLER_123_1223
*3661 FILLER_123_1226
*3662 FILLER_123_1229
*3663 FILLER_123_1232
*3664 FILLER_123_1235
*3665 FILLER_123_1238
*3666 FILLER_123_1241
*3667 FILLER_123_1244
*3668 FILLER_123_1247
*3669 FILLER_123_1250
*3670 FILLER_123_1253
*3671 FILLER_123_1256
*3672 FILLER_123_1259
*3673 FILLER_123_1262
*3674 FILLER_123_1265
*3675 FILLER_123_1268
*3676 FILLER_123_1271
*3677 FILLER_123_1274
*3678 FILLER_123_1277
*3679 FILLER_123_1280
*3680 FILLER_123_1283
*3681 FILLER_123_1286
*3682 FILLER_123_1289
*3683 FILLER_123_1292
*3684 FILLER_123_1295
*3685 FILLER_123_1298
*3686 FILLER_123_1301
*3687 FILLER_123_1304
*3688 FILLER_123_1307
*3689 FILLER_123_1310
*3690 FILLER_123_1313
*3691 FILLER_123_1316
*3692 FILLER_123_1318
*3693 FILLER_123_1321
*3694 FILLER_123_1324
*3695 FILLER_123_1327
*3696 FILLER_123_1330
*3697 FILLER_123_1333
*3698 FILLER_123_1336
*3699 FILLER_123_1339
*3700 FILLER_123_1342
*3701 FILLER_123_1345
*3702 FILLER_123_1348
*3703 FILLER_123_1351
*3704 FILLER_123_1354
*3705 FILLER_123_1357
*3706 FILLER_123_1360
*3707 FILLER_123_1363
*3708 FILLER_123_15
*3709 FILLER_123_18
*3710 FILLER_123_21
*3711 FILLER_123_24
*3712 FILLER_123_27
*3713 FILLER_123_3
*3714 FILLER_123_30
*3715 FILLER_123_33
*3716 FILLER_123_36
*3717 FILLER_123_39
*3718 FILLER_123_42
*3719 FILLER_123_45
*3720 FILLER_123_48
*3721 FILLER_123_51
*3722 FILLER_123_54
*3723 FILLER_123_57
*3724 FILLER_123_6
*3725 FILLER_123_60
*3726 FILLER_123_63
*3727 FILLER_123_66
*3728 FILLER_123_69
*3729 FILLER_123_72
*3730 FILLER_123_75
*3731 FILLER_123_78
*3732 FILLER_123_81
*3733 FILLER_123_84
*3734 FILLER_123_87
*3735 FILLER_123_9
*3736 FILLER_123_90
*3737 FILLER_123_93
*3738 FILLER_123_96
*3739 FILLER_123_99
*3740 FILLER_124_100
*3741 FILLER_124_103
*3742 FILLER_124_106
*3743 FILLER_124_109
*3744 FILLER_124_112
*3745 FILLER_124_12
*3746 FILLER_124_1208
*3747 FILLER_124_1211
*3748 FILLER_124_1214
*3749 FILLER_124_1217
*3750 FILLER_124_1220
*3751 FILLER_124_1223
*3752 FILLER_124_1226
*3753 FILLER_124_1229
*3754 FILLER_124_1232
*3755 FILLER_124_1234
*3756 FILLER_124_1237
*3757 FILLER_124_1240
*3758 FILLER_124_1243
*3759 FILLER_124_1246
*3760 FILLER_124_1249
*3761 FILLER_124_1252
*3762 FILLER_124_1255
*3763 FILLER_124_1258
*3764 FILLER_124_1261
*3765 FILLER_124_1264
*3766 FILLER_124_1267
*3767 FILLER_124_1270
*3768 FILLER_124_1273
*3769 FILLER_124_1276
*3770 FILLER_124_1279
*3771 FILLER_124_1282
*3772 FILLER_124_1285
*3773 FILLER_124_1288
*3774 FILLER_124_1290
*3775 FILLER_124_1293
*3776 FILLER_124_1296
*3777 FILLER_124_1299
*3778 FILLER_124_1302
*3779 FILLER_124_1305
*3780 FILLER_124_1308
*3781 FILLER_124_1311
*3782 FILLER_124_1314
*3783 FILLER_124_1317
*3784 FILLER_124_1320
*3785 FILLER_124_1323
*3786 FILLER_124_1326
*3787 FILLER_124_1329
*3788 FILLER_124_1332
*3789 FILLER_124_1335
*3790 FILLER_124_1338
*3791 FILLER_124_1341
*3792 FILLER_124_1344
*3793 FILLER_124_1346
*3794 FILLER_124_1349
*3795 FILLER_124_1352
*3796 FILLER_124_1355
*3797 FILLER_124_1358
*3798 FILLER_124_1361
*3799 FILLER_124_15
*3800 FILLER_124_18
*3801 FILLER_124_21
*3802 FILLER_124_24
*3803 FILLER_124_27
*3804 FILLER_124_29
*3805 FILLER_124_3
*3806 FILLER_124_32
*3807 FILLER_124_35
*3808 FILLER_124_38
*3809 FILLER_124_41
*3810 FILLER_124_44
*3811 FILLER_124_47
*3812 FILLER_124_50
*3813 FILLER_124_53
*3814 FILLER_124_56
*3815 FILLER_124_59
*3816 FILLER_124_6
*3817 FILLER_124_62
*3818 FILLER_124_65
*3819 FILLER_124_68
*3820 FILLER_124_71
*3821 FILLER_124_74
*3822 FILLER_124_77
*3823 FILLER_124_80
*3824 FILLER_124_83
*3825 FILLER_124_85
*3826 FILLER_124_88
*3827 FILLER_124_9
*3828 FILLER_124_91
*3829 FILLER_124_94
*3830 FILLER_124_97
*3831 FILLER_125_102
*3832 FILLER_125_105
*3833 FILLER_125_108
*3834 FILLER_125_111
*3835 FILLER_125_113
*3836 FILLER_125_12
*3837 FILLER_125_1208
*3838 FILLER_125_1211
*3839 FILLER_125_1214
*3840 FILLER_125_1217
*3841 FILLER_125_1220
*3842 FILLER_125_1223
*3843 FILLER_125_1226
*3844 FILLER_125_1229
*3845 FILLER_125_1232
*3846 FILLER_125_1235
*3847 FILLER_125_1238
*3848 FILLER_125_1241
*3849 FILLER_125_1244
*3850 FILLER_125_1247
*3851 FILLER_125_1250
*3852 FILLER_125_1253
*3853 FILLER_125_1256
*3854 FILLER_125_1259
*3855 FILLER_125_1262
*3856 FILLER_125_1265
*3857 FILLER_125_1268
*3858 FILLER_125_1271
*3859 FILLER_125_1274
*3860 FILLER_125_1277
*3861 FILLER_125_1280
*3862 FILLER_125_1283
*3863 FILLER_125_1286
*3864 FILLER_125_1289
*3865 FILLER_125_1292
*3866 FILLER_125_1295
*3867 FILLER_125_1298
*3868 FILLER_125_1301
*3869 FILLER_125_1304
*3870 FILLER_125_1307
*3871 FILLER_125_1310
*3872 FILLER_125_1313
*3873 FILLER_125_1316
*3874 FILLER_125_1318
*3875 FILLER_125_1321
*3876 FILLER_125_1324
*3877 FILLER_125_1327
*3878 FILLER_125_1330
*3879 FILLER_125_1333
*3880 FILLER_125_1336
*3881 FILLER_125_1339
*3882 FILLER_125_1342
*3883 FILLER_125_1345
*3884 FILLER_125_1348
*3885 FILLER_125_1351
*3886 FILLER_125_1354
*3887 FILLER_125_1357
*3888 FILLER_125_1360
*3889 FILLER_125_1363
*3890 FILLER_125_15
*3891 FILLER_125_18
*3892 FILLER_125_21
*3893 FILLER_125_24
*3894 FILLER_125_27
*3895 FILLER_125_3
*3896 FILLER_125_30
*3897 FILLER_125_33
*3898 FILLER_125_36
*3899 FILLER_125_39
*3900 FILLER_125_42
*3901 FILLER_125_45
*3902 FILLER_125_48
*3903 FILLER_125_51
*3904 FILLER_125_54
*3905 FILLER_125_57
*3906 FILLER_125_6
*3907 FILLER_125_60
*3908 FILLER_125_63
*3909 FILLER_125_66
*3910 FILLER_125_69
*3911 FILLER_125_72
*3912 FILLER_125_75
*3913 FILLER_125_78
*3914 FILLER_125_81
*3915 FILLER_125_84
*3916 FILLER_125_87
*3917 FILLER_125_9
*3918 FILLER_125_90
*3919 FILLER_125_93
*3920 FILLER_125_96
*3921 FILLER_125_99
*3922 FILLER_126_100
*3923 FILLER_126_103
*3924 FILLER_126_106
*3925 FILLER_126_109
*3926 FILLER_126_112
*3927 FILLER_126_12
*3928 FILLER_126_1208
*3929 FILLER_126_1211
*3930 FILLER_126_1214
*3931 FILLER_126_1217
*3932 FILLER_126_1220
*3933 FILLER_126_1223
*3934 FILLER_126_1226
*3935 FILLER_126_1229
*3936 FILLER_126_1232
*3937 FILLER_126_1234
*3938 FILLER_126_1237
*3939 FILLER_126_1240
*3940 FILLER_126_1243
*3941 FILLER_126_1246
*3942 FILLER_126_1249
*3943 FILLER_126_1252
*3944 FILLER_126_1255
*3945 FILLER_126_1258
*3946 FILLER_126_1261
*3947 FILLER_126_1264
*3948 FILLER_126_1267
*3949 FILLER_126_1270
*3950 FILLER_126_1273
*3951 FILLER_126_1276
*3952 FILLER_126_1279
*3953 FILLER_126_1282
*3954 FILLER_126_1285
*3955 FILLER_126_1288
*3956 FILLER_126_1290
*3957 FILLER_126_1293
*3958 FILLER_126_1296
*3959 FILLER_126_1299
*3960 FILLER_126_1302
*3961 FILLER_126_1305
*3962 FILLER_126_1308
*3963 FILLER_126_1311
*3964 FILLER_126_1314
*3965 FILLER_126_1317
*3966 FILLER_126_1320
*3967 FILLER_126_1323
*3968 FILLER_126_1326
*3969 FILLER_126_1329
*3970 FILLER_126_1332
*3971 FILLER_126_1335
*3972 FILLER_126_1338
*3973 FILLER_126_1341
*3974 FILLER_126_1344
*3975 FILLER_126_1346
*3976 FILLER_126_1349
*3977 FILLER_126_1352
*3978 FILLER_126_1355
*3979 FILLER_126_1358
*3980 FILLER_126_1361
*3981 FILLER_126_15
*3982 FILLER_126_18
*3983 FILLER_126_21
*3984 FILLER_126_24
*3985 FILLER_126_27
*3986 FILLER_126_29
*3987 FILLER_126_3
*3988 FILLER_126_32
*3989 FILLER_126_35
*3990 FILLER_126_38
*3991 FILLER_126_41
*3992 FILLER_126_44
*3993 FILLER_126_47
*3994 FILLER_126_50
*3995 FILLER_126_53
*3996 FILLER_126_56
*3997 FILLER_126_59
*3998 FILLER_126_6
*3999 FILLER_126_62
*4000 FILLER_126_65
*4001 FILLER_126_68
*4002 FILLER_126_71
*4003 FILLER_126_74
*4004 FILLER_126_77
*4005 FILLER_126_80
*4006 FILLER_126_83
*4007 FILLER_126_85
*4008 FILLER_126_88
*4009 FILLER_126_9
*4010 FILLER_126_91
*4011 FILLER_126_94
*4012 FILLER_126_97
*4013 FILLER_127_102
*4014 FILLER_127_105
*4015 FILLER_127_108
*4016 FILLER_127_111
*4017 FILLER_127_113
*4018 FILLER_127_12
*4019 FILLER_127_1208
*4020 FILLER_127_1211
*4021 FILLER_127_1214
*4022 FILLER_127_1217
*4023 FILLER_127_1220
*4024 FILLER_127_1223
*4025 FILLER_127_1226
*4026 FILLER_127_1229
*4027 FILLER_127_1232
*4028 FILLER_127_1235
*4029 FILLER_127_1238
*4030 FILLER_127_1241
*4031 FILLER_127_1244
*4032 FILLER_127_1247
*4033 FILLER_127_1250
*4034 FILLER_127_1253
*4035 FILLER_127_1256
*4036 FILLER_127_1259
*4037 FILLER_127_1262
*4038 FILLER_127_1265
*4039 FILLER_127_1268
*4040 FILLER_127_1271
*4041 FILLER_127_1274
*4042 FILLER_127_1277
*4043 FILLER_127_1280
*4044 FILLER_127_1283
*4045 FILLER_127_1286
*4046 FILLER_127_1289
*4047 FILLER_127_1292
*4048 FILLER_127_1295
*4049 FILLER_127_1298
*4050 FILLER_127_1301
*4051 FILLER_127_1304
*4052 FILLER_127_1307
*4053 FILLER_127_1310
*4054 FILLER_127_1313
*4055 FILLER_127_1316
*4056 FILLER_127_1318
*4057 FILLER_127_1321
*4058 FILLER_127_1324
*4059 FILLER_127_1327
*4060 FILLER_127_1330
*4061 FILLER_127_1333
*4062 FILLER_127_1336
*4063 FILLER_127_1339
*4064 FILLER_127_1342
*4065 FILLER_127_1345
*4066 FILLER_127_1348
*4067 FILLER_127_1351
*4068 FILLER_127_1354
*4069 FILLER_127_1357
*4070 FILLER_127_1360
*4071 FILLER_127_1363
*4072 FILLER_127_15
*4073 FILLER_127_18
*4074 FILLER_127_21
*4075 FILLER_127_24
*4076 FILLER_127_27
*4077 FILLER_127_3
*4078 FILLER_127_30
*4079 FILLER_127_33
*4080 FILLER_127_36
*4081 FILLER_127_39
*4082 FILLER_127_42
*4083 FILLER_127_45
*4084 FILLER_127_48
*4085 FILLER_127_51
*4086 FILLER_127_54
*4087 FILLER_127_57
*4088 FILLER_127_6
*4089 FILLER_127_60
*4090 FILLER_127_63
*4091 FILLER_127_66
*4092 FILLER_127_69
*4093 FILLER_127_72
*4094 FILLER_127_75
*4095 FILLER_127_78
*4096 FILLER_127_81
*4097 FILLER_127_84
*4098 FILLER_127_87
*4099 FILLER_127_9
*4100 FILLER_127_90
*4101 FILLER_127_93
*4102 FILLER_127_96
*4103 FILLER_127_99
*4104 FILLER_128_100
*4105 FILLER_128_103
*4106 FILLER_128_106
*4107 FILLER_128_109
*4108 FILLER_128_112
*4109 FILLER_128_12
*4110 FILLER_128_1208
*4111 FILLER_128_1211
*4112 FILLER_128_1214
*4113 FILLER_128_1217
*4114 FILLER_128_1220
*4115 FILLER_128_1223
*4116 FILLER_128_1226
*4117 FILLER_128_1229
*4118 FILLER_128_1232
*4119 FILLER_128_1234
*4120 FILLER_128_1237
*4121 FILLER_128_1240
*4122 FILLER_128_1243
*4123 FILLER_128_1246
*4124 FILLER_128_1249
*4125 FILLER_128_1252
*4126 FILLER_128_1255
*4127 FILLER_128_1258
*4128 FILLER_128_1261
*4129 FILLER_128_1264
*4130 FILLER_128_1267
*4131 FILLER_128_1270
*4132 FILLER_128_1273
*4133 FILLER_128_1276
*4134 FILLER_128_1279
*4135 FILLER_128_1282
*4136 FILLER_128_1285
*4137 FILLER_128_1288
*4138 FILLER_128_1290
*4139 FILLER_128_1293
*4140 FILLER_128_1296
*4141 FILLER_128_1299
*4142 FILLER_128_1302
*4143 FILLER_128_1305
*4144 FILLER_128_1308
*4145 FILLER_128_1311
*4146 FILLER_128_1314
*4147 FILLER_128_1317
*4148 FILLER_128_1320
*4149 FILLER_128_1323
*4150 FILLER_128_1326
*4151 FILLER_128_1329
*4152 FILLER_128_1332
*4153 FILLER_128_1335
*4154 FILLER_128_1338
*4155 FILLER_128_1341
*4156 FILLER_128_1344
*4157 FILLER_128_1346
*4158 FILLER_128_1349
*4159 FILLER_128_1352
*4160 FILLER_128_1355
*4161 FILLER_128_1358
*4162 FILLER_128_1361
*4163 FILLER_128_15
*4164 FILLER_128_18
*4165 FILLER_128_21
*4166 FILLER_128_24
*4167 FILLER_128_27
*4168 FILLER_128_29
*4169 FILLER_128_3
*4170 FILLER_128_32
*4171 FILLER_128_35
*4172 FILLER_128_38
*4173 FILLER_128_41
*4174 FILLER_128_44
*4175 FILLER_128_47
*4176 FILLER_128_50
*4177 FILLER_128_53
*4178 FILLER_128_56
*4179 FILLER_128_59
*4180 FILLER_128_6
*4181 FILLER_128_62
*4182 FILLER_128_65
*4183 FILLER_128_68
*4184 FILLER_128_71
*4185 FILLER_128_74
*4186 FILLER_128_77
*4187 FILLER_128_80
*4188 FILLER_128_83
*4189 FILLER_128_85
*4190 FILLER_128_88
*4191 FILLER_128_9
*4192 FILLER_128_91
*4193 FILLER_128_94
*4194 FILLER_128_97
*4195 FILLER_129_102
*4196 FILLER_129_105
*4197 FILLER_129_108
*4198 FILLER_129_111
*4199 FILLER_129_113
*4200 FILLER_129_12
*4201 FILLER_129_1208
*4202 FILLER_129_1211
*4203 FILLER_129_1214
*4204 FILLER_129_1217
*4205 FILLER_129_1220
*4206 FILLER_129_1223
*4207 FILLER_129_1226
*4208 FILLER_129_1229
*4209 FILLER_129_1232
*4210 FILLER_129_1235
*4211 FILLER_129_1238
*4212 FILLER_129_1241
*4213 FILLER_129_1244
*4214 FILLER_129_1247
*4215 FILLER_129_1250
*4216 FILLER_129_1253
*4217 FILLER_129_1256
*4218 FILLER_129_1259
*4219 FILLER_129_1262
*4220 FILLER_129_1265
*4221 FILLER_129_1268
*4222 FILLER_129_1271
*4223 FILLER_129_1274
*4224 FILLER_129_1277
*4225 FILLER_129_1280
*4226 FILLER_129_1283
*4227 FILLER_129_1286
*4228 FILLER_129_1289
*4229 FILLER_129_1292
*4230 FILLER_129_1295
*4231 FILLER_129_1298
*4232 FILLER_129_1301
*4233 FILLER_129_1304
*4234 FILLER_129_1307
*4235 FILLER_129_1310
*4236 FILLER_129_1313
*4237 FILLER_129_1316
*4238 FILLER_129_1318
*4239 FILLER_129_1321
*4240 FILLER_129_1324
*4241 FILLER_129_1327
*4242 FILLER_129_1330
*4243 FILLER_129_1333
*4244 FILLER_129_1336
*4245 FILLER_129_1339
*4246 FILLER_129_1342
*4247 FILLER_129_1345
*4248 FILLER_129_1348
*4249 FILLER_129_1351
*4250 FILLER_129_1354
*4251 FILLER_129_1357
*4252 FILLER_129_1360
*4253 FILLER_129_1363
*4254 FILLER_129_15
*4255 FILLER_129_18
*4256 FILLER_129_21
*4257 FILLER_129_24
*4258 FILLER_129_27
*4259 FILLER_129_3
*4260 FILLER_129_30
*4261 FILLER_129_33
*4262 FILLER_129_36
*4263 FILLER_129_39
*4264 FILLER_129_42
*4265 FILLER_129_45
*4266 FILLER_129_48
*4267 FILLER_129_51
*4268 FILLER_129_54
*4269 FILLER_129_57
*4270 FILLER_129_6
*4271 FILLER_129_60
*4272 FILLER_129_63
*4273 FILLER_129_66
*4274 FILLER_129_69
*4275 FILLER_129_72
*4276 FILLER_129_75
*4277 FILLER_129_78
*4278 FILLER_129_81
*4279 FILLER_129_84
*4280 FILLER_129_87
*4281 FILLER_129_9
*4282 FILLER_129_90
*4283 FILLER_129_93
*4284 FILLER_129_96
*4285 FILLER_129_99
*4286 FILLER_12_100
*4287 FILLER_12_1002
*4288 FILLER_12_1005
*4289 FILLER_12_1008
*4290 FILLER_12_1011
*4291 FILLER_12_1014
*4292 FILLER_12_1017
*4293 FILLER_12_1020
*4294 FILLER_12_1023
*4295 FILLER_12_1026
*4296 FILLER_12_1029
*4297 FILLER_12_103
*4298 FILLER_12_1032
*4299 FILLER_12_1035
*4300 FILLER_12_1037
*4301 FILLER_12_1040
*4302 FILLER_12_1043
*4303 FILLER_12_1046
*4304 FILLER_12_1049
*4305 FILLER_12_1052
*4306 FILLER_12_1055
*4307 FILLER_12_1058
*4308 FILLER_12_106
*4309 FILLER_12_1061
*4310 FILLER_12_1064
*4311 FILLER_12_1067
*4312 FILLER_12_1070
*4313 FILLER_12_1073
*4314 FILLER_12_1076
*4315 FILLER_12_1079
*4316 FILLER_12_1082
*4317 FILLER_12_1085
*4318 FILLER_12_1088
*4319 FILLER_12_109
*4320 FILLER_12_1091
*4321 FILLER_12_1093
*4322 FILLER_12_1096
*4323 FILLER_12_1099
*4324 FILLER_12_1102
*4325 FILLER_12_1105
*4326 FILLER_12_1108
*4327 FILLER_12_1111
*4328 FILLER_12_1114
*4329 FILLER_12_1117
*4330 FILLER_12_112
*4331 FILLER_12_1120
*4332 FILLER_12_1123
*4333 FILLER_12_1126
*4334 FILLER_12_1129
*4335 FILLER_12_1132
*4336 FILLER_12_1135
*4337 FILLER_12_1138
*4338 FILLER_12_1141
*4339 FILLER_12_1144
*4340 FILLER_12_1147
*4341 FILLER_12_1149
*4342 FILLER_12_115
*4343 FILLER_12_1152
*4344 FILLER_12_1155
*4345 FILLER_12_1158
*4346 FILLER_12_1161
*4347 FILLER_12_1164
*4348 FILLER_12_1167
*4349 FILLER_12_1170
*4350 FILLER_12_1173
*4351 FILLER_12_1176
*4352 FILLER_12_1179
*4353 FILLER_12_118
*4354 FILLER_12_1182
*4355 FILLER_12_1185
*4356 FILLER_12_1188
*4357 FILLER_12_1191
*4358 FILLER_12_1194
*4359 FILLER_12_1197
*4360 FILLER_12_12
*4361 FILLER_12_1200
*4362 FILLER_12_1203
*4363 FILLER_12_1205
*4364 FILLER_12_1208
*4365 FILLER_12_121
*4366 FILLER_12_1211
*4367 FILLER_12_1214
*4368 FILLER_12_1217
*4369 FILLER_12_1220
*4370 FILLER_12_1223
*4371 FILLER_12_1226
*4372 FILLER_12_1229
*4373 FILLER_12_1232
*4374 FILLER_12_1235
*4375 FILLER_12_1238
*4376 FILLER_12_124
*4377 FILLER_12_1241
*4378 FILLER_12_1244
*4379 FILLER_12_1247
*4380 FILLER_12_1250
*4381 FILLER_12_1253
*4382 FILLER_12_1256
*4383 FILLER_12_1259
*4384 FILLER_12_1261
*4385 FILLER_12_1264
*4386 FILLER_12_1267
*4387 FILLER_12_127
*4388 FILLER_12_1270
*4389 FILLER_12_1273
*4390 FILLER_12_1276
*4391 FILLER_12_1279
*4392 FILLER_12_1282
*4393 FILLER_12_1285
*4394 FILLER_12_1288
*4395 FILLER_12_1291
*4396 FILLER_12_1294
*4397 FILLER_12_1297
*4398 FILLER_12_130
*4399 FILLER_12_1300
*4400 FILLER_12_1303
*4401 FILLER_12_1306
*4402 FILLER_12_1309
*4403 FILLER_12_1312
*4404 FILLER_12_1315
*4405 FILLER_12_1317
*4406 FILLER_12_1320
*4407 FILLER_12_1323
*4408 FILLER_12_1326
*4409 FILLER_12_1329
*4410 FILLER_12_133
*4411 FILLER_12_1332
*4412 FILLER_12_1335
*4413 FILLER_12_1338
*4414 FILLER_12_1341
*4415 FILLER_12_1344
*4416 FILLER_12_1347
*4417 FILLER_12_1350
*4418 FILLER_12_1353
*4419 FILLER_12_1356
*4420 FILLER_12_1359
*4421 FILLER_12_136
*4422 FILLER_12_1362
*4423 FILLER_12_139
*4424 FILLER_12_141
*4425 FILLER_12_144
*4426 FILLER_12_147
*4427 FILLER_12_15
*4428 FILLER_12_150
*4429 FILLER_12_153
*4430 FILLER_12_156
*4431 FILLER_12_159
*4432 FILLER_12_162
*4433 FILLER_12_165
*4434 FILLER_12_168
*4435 FILLER_12_171
*4436 FILLER_12_174
*4437 FILLER_12_177
*4438 FILLER_12_18
*4439 FILLER_12_180
*4440 FILLER_12_183
*4441 FILLER_12_186
*4442 FILLER_12_189
*4443 FILLER_12_192
*4444 FILLER_12_195
*4445 FILLER_12_197
*4446 FILLER_12_200
*4447 FILLER_12_203
*4448 FILLER_12_206
*4449 FILLER_12_209
*4450 FILLER_12_21
*4451 FILLER_12_212
*4452 FILLER_12_215
*4453 FILLER_12_218
*4454 FILLER_12_221
*4455 FILLER_12_224
*4456 FILLER_12_227
*4457 FILLER_12_230
*4458 FILLER_12_233
*4459 FILLER_12_236
*4460 FILLER_12_239
*4461 FILLER_12_24
*4462 FILLER_12_242
*4463 FILLER_12_245
*4464 FILLER_12_248
*4465 FILLER_12_251
*4466 FILLER_12_253
*4467 FILLER_12_256
*4468 FILLER_12_259
*4469 FILLER_12_262
*4470 FILLER_12_265
*4471 FILLER_12_268
*4472 FILLER_12_27
*4473 FILLER_12_271
*4474 FILLER_12_274
*4475 FILLER_12_277
*4476 FILLER_12_280
*4477 FILLER_12_283
*4478 FILLER_12_286
*4479 FILLER_12_289
*4480 FILLER_12_29
*4481 FILLER_12_292
*4482 FILLER_12_295
*4483 FILLER_12_298
*4484 FILLER_12_3
*4485 FILLER_12_301
*4486 FILLER_12_304
*4487 FILLER_12_307
*4488 FILLER_12_309
*4489 FILLER_12_312
*4490 FILLER_12_315
*4491 FILLER_12_318
*4492 FILLER_12_32
*4493 FILLER_12_321
*4494 FILLER_12_324
*4495 FILLER_12_327
*4496 FILLER_12_330
*4497 FILLER_12_333
*4498 FILLER_12_336
*4499 FILLER_12_339
*4500 FILLER_12_342
*4501 FILLER_12_345
*4502 FILLER_12_348
*4503 FILLER_12_35
*4504 FILLER_12_351
*4505 FILLER_12_354
*4506 FILLER_12_357
*4507 FILLER_12_360
*4508 FILLER_12_363
*4509 FILLER_12_365
*4510 FILLER_12_368
*4511 FILLER_12_371
*4512 FILLER_12_374
*4513 FILLER_12_377
*4514 FILLER_12_38
*4515 FILLER_12_380
*4516 FILLER_12_383
*4517 FILLER_12_386
*4518 FILLER_12_389
*4519 FILLER_12_392
*4520 FILLER_12_395
*4521 FILLER_12_398
*4522 FILLER_12_401
*4523 FILLER_12_404
*4524 FILLER_12_407
*4525 FILLER_12_41
*4526 FILLER_12_410
*4527 FILLER_12_413
*4528 FILLER_12_416
*4529 FILLER_12_419
*4530 FILLER_12_421
*4531 FILLER_12_424
*4532 FILLER_12_427
*4533 FILLER_12_430
*4534 FILLER_12_433
*4535 FILLER_12_436
*4536 FILLER_12_439
*4537 FILLER_12_44
*4538 FILLER_12_442
*4539 FILLER_12_445
*4540 FILLER_12_448
*4541 FILLER_12_451
*4542 FILLER_12_454
*4543 FILLER_12_457
*4544 FILLER_12_460
*4545 FILLER_12_463
*4546 FILLER_12_466
*4547 FILLER_12_469
*4548 FILLER_12_47
*4549 FILLER_12_472
*4550 FILLER_12_475
*4551 FILLER_12_477
*4552 FILLER_12_480
*4553 FILLER_12_483
*4554 FILLER_12_486
*4555 FILLER_12_489
*4556 FILLER_12_492
*4557 FILLER_12_495
*4558 FILLER_12_498
*4559 FILLER_12_50
*4560 FILLER_12_501
*4561 FILLER_12_504
*4562 FILLER_12_507
*4563 FILLER_12_510
*4564 FILLER_12_513
*4565 FILLER_12_516
*4566 FILLER_12_519
*4567 FILLER_12_522
*4568 FILLER_12_525
*4569 FILLER_12_528
*4570 FILLER_12_53
*4571 FILLER_12_531
*4572 FILLER_12_533
*4573 FILLER_12_536
*4574 FILLER_12_539
*4575 FILLER_12_542
*4576 FILLER_12_545
*4577 FILLER_12_548
*4578 FILLER_12_551
*4579 FILLER_12_554
*4580 FILLER_12_557
*4581 FILLER_12_56
*4582 FILLER_12_560
*4583 FILLER_12_563
*4584 FILLER_12_566
*4585 FILLER_12_569
*4586 FILLER_12_572
*4587 FILLER_12_575
*4588 FILLER_12_578
*4589 FILLER_12_581
*4590 FILLER_12_584
*4591 FILLER_12_587
*4592 FILLER_12_589
*4593 FILLER_12_59
*4594 FILLER_12_592
*4595 FILLER_12_595
*4596 FILLER_12_598
*4597 FILLER_12_6
*4598 FILLER_12_601
*4599 FILLER_12_604
*4600 FILLER_12_607
*4601 FILLER_12_610
*4602 FILLER_12_613
*4603 FILLER_12_616
*4604 FILLER_12_619
*4605 FILLER_12_62
*4606 FILLER_12_622
*4607 FILLER_12_625
*4608 FILLER_12_628
*4609 FILLER_12_631
*4610 FILLER_12_634
*4611 FILLER_12_637
*4612 FILLER_12_640
*4613 FILLER_12_643
*4614 FILLER_12_645
*4615 FILLER_12_648
*4616 FILLER_12_65
*4617 FILLER_12_651
*4618 FILLER_12_654
*4619 FILLER_12_657
*4620 FILLER_12_660
*4621 FILLER_12_663
*4622 FILLER_12_666
*4623 FILLER_12_669
*4624 FILLER_12_672
*4625 FILLER_12_675
*4626 FILLER_12_678
*4627 FILLER_12_68
*4628 FILLER_12_681
*4629 FILLER_12_684
*4630 FILLER_12_687
*4631 FILLER_12_690
*4632 FILLER_12_693
*4633 FILLER_12_696
*4634 FILLER_12_699
*4635 FILLER_12_701
*4636 FILLER_12_704
*4637 FILLER_12_707
*4638 FILLER_12_71
*4639 FILLER_12_710
*4640 FILLER_12_713
*4641 FILLER_12_716
*4642 FILLER_12_719
*4643 FILLER_12_722
*4644 FILLER_12_725
*4645 FILLER_12_728
*4646 FILLER_12_731
*4647 FILLER_12_734
*4648 FILLER_12_737
*4649 FILLER_12_74
*4650 FILLER_12_740
*4651 FILLER_12_743
*4652 FILLER_12_746
*4653 FILLER_12_749
*4654 FILLER_12_752
*4655 FILLER_12_755
*4656 FILLER_12_757
*4657 FILLER_12_760
*4658 FILLER_12_763
*4659 FILLER_12_766
*4660 FILLER_12_769
*4661 FILLER_12_77
*4662 FILLER_12_772
*4663 FILLER_12_775
*4664 FILLER_12_778
*4665 FILLER_12_781
*4666 FILLER_12_784
*4667 FILLER_12_787
*4668 FILLER_12_790
*4669 FILLER_12_793
*4670 FILLER_12_796
*4671 FILLER_12_799
*4672 FILLER_12_80
*4673 FILLER_12_802
*4674 FILLER_12_805
*4675 FILLER_12_808
*4676 FILLER_12_811
*4677 FILLER_12_813
*4678 FILLER_12_816
*4679 FILLER_12_819
*4680 FILLER_12_822
*4681 FILLER_12_825
*4682 FILLER_12_828
*4683 FILLER_12_83
*4684 FILLER_12_831
*4685 FILLER_12_834
*4686 FILLER_12_837
*4687 FILLER_12_840
*4688 FILLER_12_843
*4689 FILLER_12_846
*4690 FILLER_12_849
*4691 FILLER_12_85
*4692 FILLER_12_852
*4693 FILLER_12_855
*4694 FILLER_12_858
*4695 FILLER_12_861
*4696 FILLER_12_864
*4697 FILLER_12_867
*4698 FILLER_12_869
*4699 FILLER_12_872
*4700 FILLER_12_875
*4701 FILLER_12_878
*4702 FILLER_12_88
*4703 FILLER_12_881
*4704 FILLER_12_884
*4705 FILLER_12_887
*4706 FILLER_12_890
*4707 FILLER_12_893
*4708 FILLER_12_896
*4709 FILLER_12_899
*4710 FILLER_12_9
*4711 FILLER_12_902
*4712 FILLER_12_905
*4713 FILLER_12_908
*4714 FILLER_12_91
*4715 FILLER_12_911
*4716 FILLER_12_914
*4717 FILLER_12_917
*4718 FILLER_12_920
*4719 FILLER_12_923
*4720 FILLER_12_925
*4721 FILLER_12_928
*4722 FILLER_12_931
*4723 FILLER_12_934
*4724 FILLER_12_937
*4725 FILLER_12_94
*4726 FILLER_12_940
*4727 FILLER_12_943
*4728 FILLER_12_946
*4729 FILLER_12_949
*4730 FILLER_12_952
*4731 FILLER_12_955
*4732 FILLER_12_958
*4733 FILLER_12_961
*4734 FILLER_12_964
*4735 FILLER_12_967
*4736 FILLER_12_97
*4737 FILLER_12_970
*4738 FILLER_12_973
*4739 FILLER_12_976
*4740 FILLER_12_979
*4741 FILLER_12_981
*4742 FILLER_12_984
*4743 FILLER_12_987
*4744 FILLER_12_990
*4745 FILLER_12_993
*4746 FILLER_12_996
*4747 FILLER_12_999
*4748 FILLER_130_100
*4749 FILLER_130_103
*4750 FILLER_130_106
*4751 FILLER_130_109
*4752 FILLER_130_112
*4753 FILLER_130_12
*4754 FILLER_130_1208
*4755 FILLER_130_1211
*4756 FILLER_130_1214
*4757 FILLER_130_1217
*4758 FILLER_130_1220
*4759 FILLER_130_1223
*4760 FILLER_130_1226
*4761 FILLER_130_1229
*4762 FILLER_130_1232
*4763 FILLER_130_1234
*4764 FILLER_130_1237
*4765 FILLER_130_1240
*4766 FILLER_130_1243
*4767 FILLER_130_1246
*4768 FILLER_130_1249
*4769 FILLER_130_1252
*4770 FILLER_130_1255
*4771 FILLER_130_1258
*4772 FILLER_130_1261
*4773 FILLER_130_1264
*4774 FILLER_130_1267
*4775 FILLER_130_1270
*4776 FILLER_130_1273
*4777 FILLER_130_1276
*4778 FILLER_130_1279
*4779 FILLER_130_1282
*4780 FILLER_130_1285
*4781 FILLER_130_1288
*4782 FILLER_130_1290
*4783 FILLER_130_1293
*4784 FILLER_130_1296
*4785 FILLER_130_1299
*4786 FILLER_130_1302
*4787 FILLER_130_1305
*4788 FILLER_130_1308
*4789 FILLER_130_1311
*4790 FILLER_130_1314
*4791 FILLER_130_1317
*4792 FILLER_130_1320
*4793 FILLER_130_1323
*4794 FILLER_130_1326
*4795 FILLER_130_1329
*4796 FILLER_130_1332
*4797 FILLER_130_1335
*4798 FILLER_130_1338
*4799 FILLER_130_1341
*4800 FILLER_130_1344
*4801 FILLER_130_1346
*4802 FILLER_130_1349
*4803 FILLER_130_1352
*4804 FILLER_130_1355
*4805 FILLER_130_1358
*4806 FILLER_130_1361
*4807 FILLER_130_15
*4808 FILLER_130_18
*4809 FILLER_130_21
*4810 FILLER_130_24
*4811 FILLER_130_27
*4812 FILLER_130_29
*4813 FILLER_130_3
*4814 FILLER_130_32
*4815 FILLER_130_35
*4816 FILLER_130_38
*4817 FILLER_130_41
*4818 FILLER_130_44
*4819 FILLER_130_47
*4820 FILLER_130_50
*4821 FILLER_130_53
*4822 FILLER_130_56
*4823 FILLER_130_59
*4824 FILLER_130_6
*4825 FILLER_130_62
*4826 FILLER_130_65
*4827 FILLER_130_68
*4828 FILLER_130_71
*4829 FILLER_130_74
*4830 FILLER_130_77
*4831 FILLER_130_80
*4832 FILLER_130_83
*4833 FILLER_130_85
*4834 FILLER_130_88
*4835 FILLER_130_9
*4836 FILLER_130_91
*4837 FILLER_130_94
*4838 FILLER_130_97
*4839 FILLER_131_102
*4840 FILLER_131_105
*4841 FILLER_131_108
*4842 FILLER_131_111
*4843 FILLER_131_113
*4844 FILLER_131_12
*4845 FILLER_131_1208
*4846 FILLER_131_1211
*4847 FILLER_131_1214
*4848 FILLER_131_1217
*4849 FILLER_131_1220
*4850 FILLER_131_1223
*4851 FILLER_131_1226
*4852 FILLER_131_1229
*4853 FILLER_131_1232
*4854 FILLER_131_1235
*4855 FILLER_131_1238
*4856 FILLER_131_1241
*4857 FILLER_131_1244
*4858 FILLER_131_1247
*4859 FILLER_131_1250
*4860 FILLER_131_1253
*4861 FILLER_131_1256
*4862 FILLER_131_1259
*4863 FILLER_131_1262
*4864 FILLER_131_1265
*4865 FILLER_131_1268
*4866 FILLER_131_1271
*4867 FILLER_131_1274
*4868 FILLER_131_1277
*4869 FILLER_131_1280
*4870 FILLER_131_1283
*4871 FILLER_131_1286
*4872 FILLER_131_1289
*4873 FILLER_131_1292
*4874 FILLER_131_1295
*4875 FILLER_131_1298
*4876 FILLER_131_1301
*4877 FILLER_131_1304
*4878 FILLER_131_1307
*4879 FILLER_131_1310
*4880 FILLER_131_1313
*4881 FILLER_131_1316
*4882 FILLER_131_1318
*4883 FILLER_131_1321
*4884 FILLER_131_1324
*4885 FILLER_131_1327
*4886 FILLER_131_1330
*4887 FILLER_131_1333
*4888 FILLER_131_1336
*4889 FILLER_131_1339
*4890 FILLER_131_1342
*4891 FILLER_131_1345
*4892 FILLER_131_1348
*4893 FILLER_131_1351
*4894 FILLER_131_1354
*4895 FILLER_131_1357
*4896 FILLER_131_1360
*4897 FILLER_131_1363
*4898 FILLER_131_15
*4899 FILLER_131_18
*4900 FILLER_131_21
*4901 FILLER_131_24
*4902 FILLER_131_27
*4903 FILLER_131_3
*4904 FILLER_131_30
*4905 FILLER_131_33
*4906 FILLER_131_36
*4907 FILLER_131_39
*4908 FILLER_131_42
*4909 FILLER_131_45
*4910 FILLER_131_48
*4911 FILLER_131_51
*4912 FILLER_131_54
*4913 FILLER_131_57
*4914 FILLER_131_6
*4915 FILLER_131_60
*4916 FILLER_131_63
*4917 FILLER_131_66
*4918 FILLER_131_69
*4919 FILLER_131_72
*4920 FILLER_131_75
*4921 FILLER_131_78
*4922 FILLER_131_81
*4923 FILLER_131_84
*4924 FILLER_131_87
*4925 FILLER_131_9
*4926 FILLER_131_90
*4927 FILLER_131_93
*4928 FILLER_131_96
*4929 FILLER_131_99
*4930 FILLER_132_100
*4931 FILLER_132_103
*4932 FILLER_132_106
*4933 FILLER_132_109
*4934 FILLER_132_112
*4935 FILLER_132_12
*4936 FILLER_132_1208
*4937 FILLER_132_1211
*4938 FILLER_132_1214
*4939 FILLER_132_1217
*4940 FILLER_132_1220
*4941 FILLER_132_1223
*4942 FILLER_132_1226
*4943 FILLER_132_1229
*4944 FILLER_132_1232
*4945 FILLER_132_1234
*4946 FILLER_132_1237
*4947 FILLER_132_1240
*4948 FILLER_132_1243
*4949 FILLER_132_1246
*4950 FILLER_132_1249
*4951 FILLER_132_1252
*4952 FILLER_132_1255
*4953 FILLER_132_1258
*4954 FILLER_132_1261
*4955 FILLER_132_1264
*4956 FILLER_132_1267
*4957 FILLER_132_1270
*4958 FILLER_132_1273
*4959 FILLER_132_1276
*4960 FILLER_132_1279
*4961 FILLER_132_1282
*4962 FILLER_132_1285
*4963 FILLER_132_1288
*4964 FILLER_132_1290
*4965 FILLER_132_1293
*4966 FILLER_132_1296
*4967 FILLER_132_1299
*4968 FILLER_132_1302
*4969 FILLER_132_1305
*4970 FILLER_132_1308
*4971 FILLER_132_1311
*4972 FILLER_132_1314
*4973 FILLER_132_1317
*4974 FILLER_132_1320
*4975 FILLER_132_1323
*4976 FILLER_132_1326
*4977 FILLER_132_1329
*4978 FILLER_132_1332
*4979 FILLER_132_1335
*4980 FILLER_132_1338
*4981 FILLER_132_1341
*4982 FILLER_132_1344
*4983 FILLER_132_1346
*4984 FILLER_132_1349
*4985 FILLER_132_1352
*4986 FILLER_132_1355
*4987 FILLER_132_1358
*4988 FILLER_132_1361
*4989 FILLER_132_15
*4990 FILLER_132_18
*4991 FILLER_132_21
*4992 FILLER_132_24
*4993 FILLER_132_27
*4994 FILLER_132_29
*4995 FILLER_132_3
*4996 FILLER_132_32
*4997 FILLER_132_35
*4998 FILLER_132_38
*4999 FILLER_132_41
*5000 FILLER_132_44
*5001 FILLER_132_47
*5002 FILLER_132_50
*5003 FILLER_132_53
*5004 FILLER_132_56
*5005 FILLER_132_59
*5006 FILLER_132_6
*5007 FILLER_132_62
*5008 FILLER_132_65
*5009 FILLER_132_68
*5010 FILLER_132_71
*5011 FILLER_132_74
*5012 FILLER_132_77
*5013 FILLER_132_80
*5014 FILLER_132_83
*5015 FILLER_132_85
*5016 FILLER_132_88
*5017 FILLER_132_9
*5018 FILLER_132_91
*5019 FILLER_132_94
*5020 FILLER_132_97
*5021 FILLER_133_102
*5022 FILLER_133_105
*5023 FILLER_133_108
*5024 FILLER_133_111
*5025 FILLER_133_113
*5026 FILLER_133_12
*5027 FILLER_133_1208
*5028 FILLER_133_1211
*5029 FILLER_133_1214
*5030 FILLER_133_1217
*5031 FILLER_133_1220
*5032 FILLER_133_1223
*5033 FILLER_133_1226
*5034 FILLER_133_1229
*5035 FILLER_133_1232
*5036 FILLER_133_1235
*5037 FILLER_133_1238
*5038 FILLER_133_1241
*5039 FILLER_133_1244
*5040 FILLER_133_1247
*5041 FILLER_133_1250
*5042 FILLER_133_1253
*5043 FILLER_133_1256
*5044 FILLER_133_1259
*5045 FILLER_133_1262
*5046 FILLER_133_1265
*5047 FILLER_133_1268
*5048 FILLER_133_1271
*5049 FILLER_133_1274
*5050 FILLER_133_1277
*5051 FILLER_133_1280
*5052 FILLER_133_1283
*5053 FILLER_133_1286
*5054 FILLER_133_1289
*5055 FILLER_133_1292
*5056 FILLER_133_1295
*5057 FILLER_133_1298
*5058 FILLER_133_1301
*5059 FILLER_133_1304
*5060 FILLER_133_1307
*5061 FILLER_133_1310
*5062 FILLER_133_1313
*5063 FILLER_133_1316
*5064 FILLER_133_1318
*5065 FILLER_133_1321
*5066 FILLER_133_1324
*5067 FILLER_133_1327
*5068 FILLER_133_1330
*5069 FILLER_133_1333
*5070 FILLER_133_1336
*5071 FILLER_133_1339
*5072 FILLER_133_1342
*5073 FILLER_133_1345
*5074 FILLER_133_1348
*5075 FILLER_133_1351
*5076 FILLER_133_1354
*5077 FILLER_133_1357
*5078 FILLER_133_1360
*5079 FILLER_133_1363
*5080 FILLER_133_15
*5081 FILLER_133_18
*5082 FILLER_133_21
*5083 FILLER_133_24
*5084 FILLER_133_27
*5085 FILLER_133_3
*5086 FILLER_133_30
*5087 FILLER_133_33
*5088 FILLER_133_36
*5089 FILLER_133_39
*5090 FILLER_133_42
*5091 FILLER_133_45
*5092 FILLER_133_48
*5093 FILLER_133_51
*5094 FILLER_133_54
*5095 FILLER_133_57
*5096 FILLER_133_6
*5097 FILLER_133_60
*5098 FILLER_133_63
*5099 FILLER_133_66
*5100 FILLER_133_69
*5101 FILLER_133_72
*5102 FILLER_133_75
*5103 FILLER_133_78
*5104 FILLER_133_81
*5105 FILLER_133_84
*5106 FILLER_133_87
*5107 FILLER_133_9
*5108 FILLER_133_90
*5109 FILLER_133_93
*5110 FILLER_133_96
*5111 FILLER_133_99
*5112 FILLER_134_100
*5113 FILLER_134_103
*5114 FILLER_134_106
*5115 FILLER_134_109
*5116 FILLER_134_112
*5117 FILLER_134_12
*5118 FILLER_134_1208
*5119 FILLER_134_1211
*5120 FILLER_134_1214
*5121 FILLER_134_1217
*5122 FILLER_134_1220
*5123 FILLER_134_1223
*5124 FILLER_134_1226
*5125 FILLER_134_1229
*5126 FILLER_134_1232
*5127 FILLER_134_1234
*5128 FILLER_134_1237
*5129 FILLER_134_1240
*5130 FILLER_134_1243
*5131 FILLER_134_1246
*5132 FILLER_134_1249
*5133 FILLER_134_1252
*5134 FILLER_134_1255
*5135 FILLER_134_1258
*5136 FILLER_134_1261
*5137 FILLER_134_1264
*5138 FILLER_134_1267
*5139 FILLER_134_1270
*5140 FILLER_134_1273
*5141 FILLER_134_1276
*5142 FILLER_134_1279
*5143 FILLER_134_1282
*5144 FILLER_134_1285
*5145 FILLER_134_1288
*5146 FILLER_134_1290
*5147 FILLER_134_1293
*5148 FILLER_134_1296
*5149 FILLER_134_1299
*5150 FILLER_134_1302
*5151 FILLER_134_1305
*5152 FILLER_134_1308
*5153 FILLER_134_1311
*5154 FILLER_134_1314
*5155 FILLER_134_1317
*5156 FILLER_134_1320
*5157 FILLER_134_1323
*5158 FILLER_134_1326
*5159 FILLER_134_1329
*5160 FILLER_134_1332
*5161 FILLER_134_1335
*5162 FILLER_134_1338
*5163 FILLER_134_1341
*5164 FILLER_134_1344
*5165 FILLER_134_1346
*5166 FILLER_134_1349
*5167 FILLER_134_1352
*5168 FILLER_134_1355
*5169 FILLER_134_1358
*5170 FILLER_134_1361
*5171 FILLER_134_15
*5172 FILLER_134_18
*5173 FILLER_134_21
*5174 FILLER_134_24
*5175 FILLER_134_27
*5176 FILLER_134_29
*5177 FILLER_134_3
*5178 FILLER_134_32
*5179 FILLER_134_35
*5180 FILLER_134_38
*5181 FILLER_134_41
*5182 FILLER_134_44
*5183 FILLER_134_47
*5184 FILLER_134_50
*5185 FILLER_134_53
*5186 FILLER_134_56
*5187 FILLER_134_59
*5188 FILLER_134_6
*5189 FILLER_134_62
*5190 FILLER_134_65
*5191 FILLER_134_68
*5192 FILLER_134_71
*5193 FILLER_134_74
*5194 FILLER_134_77
*5195 FILLER_134_80
*5196 FILLER_134_83
*5197 FILLER_134_85
*5198 FILLER_134_88
*5199 FILLER_134_9
*5200 FILLER_134_91
*5201 FILLER_134_94
*5202 FILLER_134_97
*5203 FILLER_135_102
*5204 FILLER_135_105
*5205 FILLER_135_108
*5206 FILLER_135_111
*5207 FILLER_135_113
*5208 FILLER_135_12
*5209 FILLER_135_1208
*5210 FILLER_135_1211
*5211 FILLER_135_1214
*5212 FILLER_135_1217
*5213 FILLER_135_1220
*5214 FILLER_135_1223
*5215 FILLER_135_1226
*5216 FILLER_135_1229
*5217 FILLER_135_1232
*5218 FILLER_135_1235
*5219 FILLER_135_1238
*5220 FILLER_135_1241
*5221 FILLER_135_1244
*5222 FILLER_135_1247
*5223 FILLER_135_1250
*5224 FILLER_135_1253
*5225 FILLER_135_1256
*5226 FILLER_135_1259
*5227 FILLER_135_1262
*5228 FILLER_135_1265
*5229 FILLER_135_1268
*5230 FILLER_135_1271
*5231 FILLER_135_1274
*5232 FILLER_135_1277
*5233 FILLER_135_1280
*5234 FILLER_135_1283
*5235 FILLER_135_1286
*5236 FILLER_135_1289
*5237 FILLER_135_1292
*5238 FILLER_135_1295
*5239 FILLER_135_1298
*5240 FILLER_135_1301
*5241 FILLER_135_1304
*5242 FILLER_135_1307
*5243 FILLER_135_1310
*5244 FILLER_135_1313
*5245 FILLER_135_1316
*5246 FILLER_135_1318
*5247 FILLER_135_1321
*5248 FILLER_135_1324
*5249 FILLER_135_1327
*5250 FILLER_135_1330
*5251 FILLER_135_1333
*5252 FILLER_135_1336
*5253 FILLER_135_1339
*5254 FILLER_135_1342
*5255 FILLER_135_1345
*5256 FILLER_135_1348
*5257 FILLER_135_1351
*5258 FILLER_135_1354
*5259 FILLER_135_1357
*5260 FILLER_135_1360
*5261 FILLER_135_1363
*5262 FILLER_135_15
*5263 FILLER_135_18
*5264 FILLER_135_21
*5265 FILLER_135_24
*5266 FILLER_135_27
*5267 FILLER_135_3
*5268 FILLER_135_30
*5269 FILLER_135_33
*5270 FILLER_135_36
*5271 FILLER_135_39
*5272 FILLER_135_42
*5273 FILLER_135_45
*5274 FILLER_135_48
*5275 FILLER_135_51
*5276 FILLER_135_54
*5277 FILLER_135_57
*5278 FILLER_135_6
*5279 FILLER_135_60
*5280 FILLER_135_63
*5281 FILLER_135_66
*5282 FILLER_135_69
*5283 FILLER_135_72
*5284 FILLER_135_75
*5285 FILLER_135_78
*5286 FILLER_135_81
*5287 FILLER_135_84
*5288 FILLER_135_87
*5289 FILLER_135_9
*5290 FILLER_135_90
*5291 FILLER_135_93
*5292 FILLER_135_96
*5293 FILLER_135_99
*5294 FILLER_136_100
*5295 FILLER_136_103
*5296 FILLER_136_106
*5297 FILLER_136_109
*5298 FILLER_136_112
*5299 FILLER_136_12
*5300 FILLER_136_1208
*5301 FILLER_136_1211
*5302 FILLER_136_1214
*5303 FILLER_136_1217
*5304 FILLER_136_1220
*5305 FILLER_136_1223
*5306 FILLER_136_1226
*5307 FILLER_136_1229
*5308 FILLER_136_1232
*5309 FILLER_136_1234
*5310 FILLER_136_1237
*5311 FILLER_136_1240
*5312 FILLER_136_1243
*5313 FILLER_136_1246
*5314 FILLER_136_1249
*5315 FILLER_136_1252
*5316 FILLER_136_1255
*5317 FILLER_136_1258
*5318 FILLER_136_1261
*5319 FILLER_136_1264
*5320 FILLER_136_1267
*5321 FILLER_136_1270
*5322 FILLER_136_1273
*5323 FILLER_136_1276
*5324 FILLER_136_1279
*5325 FILLER_136_1282
*5326 FILLER_136_1285
*5327 FILLER_136_1288
*5328 FILLER_136_1290
*5329 FILLER_136_1293
*5330 FILLER_136_1296
*5331 FILLER_136_1299
*5332 FILLER_136_1302
*5333 FILLER_136_1305
*5334 FILLER_136_1308
*5335 FILLER_136_1311
*5336 FILLER_136_1314
*5337 FILLER_136_1317
*5338 FILLER_136_1320
*5339 FILLER_136_1323
*5340 FILLER_136_1326
*5341 FILLER_136_1329
*5342 FILLER_136_1332
*5343 FILLER_136_1335
*5344 FILLER_136_1338
*5345 FILLER_136_1341
*5346 FILLER_136_1344
*5347 FILLER_136_1346
*5348 FILLER_136_1349
*5349 FILLER_136_1352
*5350 FILLER_136_1355
*5351 FILLER_136_1358
*5352 FILLER_136_1361
*5353 FILLER_136_15
*5354 FILLER_136_18
*5355 FILLER_136_21
*5356 FILLER_136_24
*5357 FILLER_136_27
*5358 FILLER_136_29
*5359 FILLER_136_3
*5360 FILLER_136_32
*5361 FILLER_136_35
*5362 FILLER_136_38
*5363 FILLER_136_41
*5364 FILLER_136_44
*5365 FILLER_136_47
*5366 FILLER_136_50
*5367 FILLER_136_53
*5368 FILLER_136_56
*5369 FILLER_136_59
*5370 FILLER_136_6
*5371 FILLER_136_62
*5372 FILLER_136_65
*5373 FILLER_136_68
*5374 FILLER_136_71
*5375 FILLER_136_74
*5376 FILLER_136_77
*5377 FILLER_136_80
*5378 FILLER_136_83
*5379 FILLER_136_85
*5380 FILLER_136_88
*5381 FILLER_136_9
*5382 FILLER_136_91
*5383 FILLER_136_94
*5384 FILLER_136_97
*5385 FILLER_137_102
*5386 FILLER_137_105
*5387 FILLER_137_108
*5388 FILLER_137_111
*5389 FILLER_137_113
*5390 FILLER_137_12
*5391 FILLER_137_1208
*5392 FILLER_137_1211
*5393 FILLER_137_1214
*5394 FILLER_137_1217
*5395 FILLER_137_1220
*5396 FILLER_137_1223
*5397 FILLER_137_1226
*5398 FILLER_137_1229
*5399 FILLER_137_1232
*5400 FILLER_137_1235
*5401 FILLER_137_1238
*5402 FILLER_137_1241
*5403 FILLER_137_1244
*5404 FILLER_137_1247
*5405 FILLER_137_1250
*5406 FILLER_137_1253
*5407 FILLER_137_1256
*5408 FILLER_137_1259
*5409 FILLER_137_1262
*5410 FILLER_137_1265
*5411 FILLER_137_1268
*5412 FILLER_137_1271
*5413 FILLER_137_1274
*5414 FILLER_137_1277
*5415 FILLER_137_1280
*5416 FILLER_137_1283
*5417 FILLER_137_1286
*5418 FILLER_137_1289
*5419 FILLER_137_1292
*5420 FILLER_137_1295
*5421 FILLER_137_1298
*5422 FILLER_137_1301
*5423 FILLER_137_1304
*5424 FILLER_137_1307
*5425 FILLER_137_1310
*5426 FILLER_137_1313
*5427 FILLER_137_1316
*5428 FILLER_137_1318
*5429 FILLER_137_1321
*5430 FILLER_137_1324
*5431 FILLER_137_1327
*5432 FILLER_137_1330
*5433 FILLER_137_1333
*5434 FILLER_137_1336
*5435 FILLER_137_1339
*5436 FILLER_137_1342
*5437 FILLER_137_1345
*5438 FILLER_137_1348
*5439 FILLER_137_1351
*5440 FILLER_137_1354
*5441 FILLER_137_1357
*5442 FILLER_137_1360
*5443 FILLER_137_1363
*5444 FILLER_137_15
*5445 FILLER_137_18
*5446 FILLER_137_21
*5447 FILLER_137_24
*5448 FILLER_137_27
*5449 FILLER_137_3
*5450 FILLER_137_30
*5451 FILLER_137_33
*5452 FILLER_137_36
*5453 FILLER_137_39
*5454 FILLER_137_42
*5455 FILLER_137_45
*5456 FILLER_137_48
*5457 FILLER_137_51
*5458 FILLER_137_54
*5459 FILLER_137_57
*5460 FILLER_137_6
*5461 FILLER_137_60
*5462 FILLER_137_63
*5463 FILLER_137_66
*5464 FILLER_137_69
*5465 FILLER_137_72
*5466 FILLER_137_75
*5467 FILLER_137_78
*5468 FILLER_137_81
*5469 FILLER_137_84
*5470 FILLER_137_87
*5471 FILLER_137_9
*5472 FILLER_137_90
*5473 FILLER_137_93
*5474 FILLER_137_96
*5475 FILLER_137_99
*5476 FILLER_138_100
*5477 FILLER_138_103
*5478 FILLER_138_106
*5479 FILLER_138_109
*5480 FILLER_138_112
*5481 FILLER_138_12
*5482 FILLER_138_1208
*5483 FILLER_138_1211
*5484 FILLER_138_1214
*5485 FILLER_138_1217
*5486 FILLER_138_1220
*5487 FILLER_138_1223
*5488 FILLER_138_1226
*5489 FILLER_138_1229
*5490 FILLER_138_1232
*5491 FILLER_138_1234
*5492 FILLER_138_1237
*5493 FILLER_138_1240
*5494 FILLER_138_1243
*5495 FILLER_138_1246
*5496 FILLER_138_1249
*5497 FILLER_138_1252
*5498 FILLER_138_1255
*5499 FILLER_138_1258
*5500 FILLER_138_1261
*5501 FILLER_138_1264
*5502 FILLER_138_1267
*5503 FILLER_138_1270
*5504 FILLER_138_1273
*5505 FILLER_138_1276
*5506 FILLER_138_1279
*5507 FILLER_138_1282
*5508 FILLER_138_1285
*5509 FILLER_138_1288
*5510 FILLER_138_1290
*5511 FILLER_138_1293
*5512 FILLER_138_1296
*5513 FILLER_138_1299
*5514 FILLER_138_1302
*5515 FILLER_138_1305
*5516 FILLER_138_1308
*5517 FILLER_138_1311
*5518 FILLER_138_1314
*5519 FILLER_138_1317
*5520 FILLER_138_1320
*5521 FILLER_138_1323
*5522 FILLER_138_1326
*5523 FILLER_138_1329
*5524 FILLER_138_1332
*5525 FILLER_138_1335
*5526 FILLER_138_1338
*5527 FILLER_138_1341
*5528 FILLER_138_1344
*5529 FILLER_138_1346
*5530 FILLER_138_1349
*5531 FILLER_138_1352
*5532 FILLER_138_1355
*5533 FILLER_138_1358
*5534 FILLER_138_1361
*5535 FILLER_138_15
*5536 FILLER_138_18
*5537 FILLER_138_21
*5538 FILLER_138_24
*5539 FILLER_138_27
*5540 FILLER_138_29
*5541 FILLER_138_3
*5542 FILLER_138_32
*5543 FILLER_138_35
*5544 FILLER_138_38
*5545 FILLER_138_41
*5546 FILLER_138_44
*5547 FILLER_138_47
*5548 FILLER_138_50
*5549 FILLER_138_53
*5550 FILLER_138_56
*5551 FILLER_138_59
*5552 FILLER_138_6
*5553 FILLER_138_62
*5554 FILLER_138_65
*5555 FILLER_138_68
*5556 FILLER_138_71
*5557 FILLER_138_74
*5558 FILLER_138_77
*5559 FILLER_138_80
*5560 FILLER_138_83
*5561 FILLER_138_85
*5562 FILLER_138_88
*5563 FILLER_138_9
*5564 FILLER_138_91
*5565 FILLER_138_94
*5566 FILLER_138_97
*5567 FILLER_139_102
*5568 FILLER_139_105
*5569 FILLER_139_108
*5570 FILLER_139_111
*5571 FILLER_139_113
*5572 FILLER_139_12
*5573 FILLER_139_1208
*5574 FILLER_139_1211
*5575 FILLER_139_1214
*5576 FILLER_139_1217
*5577 FILLER_139_1220
*5578 FILLER_139_1223
*5579 FILLER_139_1226
*5580 FILLER_139_1229
*5581 FILLER_139_1232
*5582 FILLER_139_1235
*5583 FILLER_139_1238
*5584 FILLER_139_1241
*5585 FILLER_139_1244
*5586 FILLER_139_1247
*5587 FILLER_139_1250
*5588 FILLER_139_1253
*5589 FILLER_139_1256
*5590 FILLER_139_1259
*5591 FILLER_139_1262
*5592 FILLER_139_1265
*5593 FILLER_139_1268
*5594 FILLER_139_1271
*5595 FILLER_139_1274
*5596 FILLER_139_1277
*5597 FILLER_139_1280
*5598 FILLER_139_1283
*5599 FILLER_139_1286
*5600 FILLER_139_1289
*5601 FILLER_139_1292
*5602 FILLER_139_1295
*5603 FILLER_139_1298
*5604 FILLER_139_1301
*5605 FILLER_139_1304
*5606 FILLER_139_1307
*5607 FILLER_139_1310
*5608 FILLER_139_1313
*5609 FILLER_139_1316
*5610 FILLER_139_1318
*5611 FILLER_139_1321
*5612 FILLER_139_1324
*5613 FILLER_139_1327
*5614 FILLER_139_1330
*5615 FILLER_139_1333
*5616 FILLER_139_1336
*5617 FILLER_139_1339
*5618 FILLER_139_1342
*5619 FILLER_139_1345
*5620 FILLER_139_1348
*5621 FILLER_139_1351
*5622 FILLER_139_1354
*5623 FILLER_139_1357
*5624 FILLER_139_1360
*5625 FILLER_139_1363
*5626 FILLER_139_15
*5627 FILLER_139_18
*5628 FILLER_139_21
*5629 FILLER_139_24
*5630 FILLER_139_27
*5631 FILLER_139_3
*5632 FILLER_139_30
*5633 FILLER_139_33
*5634 FILLER_139_36
*5635 FILLER_139_39
*5636 FILLER_139_42
*5637 FILLER_139_45
*5638 FILLER_139_48
*5639 FILLER_139_51
*5640 FILLER_139_54
*5641 FILLER_139_57
*5642 FILLER_139_6
*5643 FILLER_139_60
*5644 FILLER_139_63
*5645 FILLER_139_66
*5646 FILLER_139_69
*5647 FILLER_139_72
*5648 FILLER_139_75
*5649 FILLER_139_78
*5650 FILLER_139_81
*5651 FILLER_139_84
*5652 FILLER_139_87
*5653 FILLER_139_9
*5654 FILLER_139_90
*5655 FILLER_139_93
*5656 FILLER_139_96
*5657 FILLER_139_99
*5658 FILLER_13_1001
*5659 FILLER_13_1004
*5660 FILLER_13_1007
*5661 FILLER_13_1009
*5662 FILLER_13_1012
*5663 FILLER_13_1015
*5664 FILLER_13_1018
*5665 FILLER_13_102
*5666 FILLER_13_1021
*5667 FILLER_13_1024
*5668 FILLER_13_1027
*5669 FILLER_13_1030
*5670 FILLER_13_1033
*5671 FILLER_13_1036
*5672 FILLER_13_1039
*5673 FILLER_13_1042
*5674 FILLER_13_1045
*5675 FILLER_13_1048
*5676 FILLER_13_105
*5677 FILLER_13_1051
*5678 FILLER_13_1054
*5679 FILLER_13_1057
*5680 FILLER_13_1060
*5681 FILLER_13_1063
*5682 FILLER_13_1065
*5683 FILLER_13_1068
*5684 FILLER_13_1071
*5685 FILLER_13_1074
*5686 FILLER_13_1077
*5687 FILLER_13_108
*5688 FILLER_13_1080
*5689 FILLER_13_1083
*5690 FILLER_13_1086
*5691 FILLER_13_1089
*5692 FILLER_13_1092
*5693 FILLER_13_1095
*5694 FILLER_13_1098
*5695 FILLER_13_1101
*5696 FILLER_13_1104
*5697 FILLER_13_1107
*5698 FILLER_13_111
*5699 FILLER_13_1110
*5700 FILLER_13_1113
*5701 FILLER_13_1116
*5702 FILLER_13_1119
*5703 FILLER_13_1121
*5704 FILLER_13_1124
*5705 FILLER_13_1127
*5706 FILLER_13_113
*5707 FILLER_13_1130
*5708 FILLER_13_1133
*5709 FILLER_13_1136
*5710 FILLER_13_1139
*5711 FILLER_13_1142
*5712 FILLER_13_1145
*5713 FILLER_13_1148
*5714 FILLER_13_1151
*5715 FILLER_13_1154
*5716 FILLER_13_1157
*5717 FILLER_13_116
*5718 FILLER_13_1160
*5719 FILLER_13_1163
*5720 FILLER_13_1166
*5721 FILLER_13_1169
*5722 FILLER_13_1172
*5723 FILLER_13_1175
*5724 FILLER_13_1177
*5725 FILLER_13_1180
*5726 FILLER_13_1183
*5727 FILLER_13_1186
*5728 FILLER_13_1189
*5729 FILLER_13_119
*5730 FILLER_13_1192
*5731 FILLER_13_1195
*5732 FILLER_13_1198
*5733 FILLER_13_12
*5734 FILLER_13_1201
*5735 FILLER_13_1204
*5736 FILLER_13_1207
*5737 FILLER_13_1210
*5738 FILLER_13_1213
*5739 FILLER_13_1216
*5740 FILLER_13_1219
*5741 FILLER_13_122
*5742 FILLER_13_1222
*5743 FILLER_13_1225
*5744 FILLER_13_1228
*5745 FILLER_13_1231
*5746 FILLER_13_1233
*5747 FILLER_13_1236
*5748 FILLER_13_1239
*5749 FILLER_13_1242
*5750 FILLER_13_1245
*5751 FILLER_13_1248
*5752 FILLER_13_125
*5753 FILLER_13_1251
*5754 FILLER_13_1254
*5755 FILLER_13_1257
*5756 FILLER_13_1260
*5757 FILLER_13_1263
*5758 FILLER_13_1266
*5759 FILLER_13_1269
*5760 FILLER_13_1272
*5761 FILLER_13_1275
*5762 FILLER_13_1278
*5763 FILLER_13_128
*5764 FILLER_13_1281
*5765 FILLER_13_1284
*5766 FILLER_13_1287
*5767 FILLER_13_1289
*5768 FILLER_13_1292
*5769 FILLER_13_1295
*5770 FILLER_13_1298
*5771 FILLER_13_1301
*5772 FILLER_13_1304
*5773 FILLER_13_1307
*5774 FILLER_13_131
*5775 FILLER_13_1310
*5776 FILLER_13_1313
*5777 FILLER_13_1316
*5778 FILLER_13_1319
*5779 FILLER_13_1322
*5780 FILLER_13_1325
*5781 FILLER_13_1328
*5782 FILLER_13_1331
*5783 FILLER_13_1334
*5784 FILLER_13_1337
*5785 FILLER_13_134
*5786 FILLER_13_1340
*5787 FILLER_13_1343
*5788 FILLER_13_1345
*5789 FILLER_13_1348
*5790 FILLER_13_1351
*5791 FILLER_13_1354
*5792 FILLER_13_1357
*5793 FILLER_13_1360
*5794 FILLER_13_1363
*5795 FILLER_13_137
*5796 FILLER_13_140
*5797 FILLER_13_143
*5798 FILLER_13_146
*5799 FILLER_13_149
*5800 FILLER_13_15
*5801 FILLER_13_152
*5802 FILLER_13_155
*5803 FILLER_13_158
*5804 FILLER_13_161
*5805 FILLER_13_164
*5806 FILLER_13_167
*5807 FILLER_13_169
*5808 FILLER_13_172
*5809 FILLER_13_175
*5810 FILLER_13_178
*5811 FILLER_13_18
*5812 FILLER_13_181
*5813 FILLER_13_184
*5814 FILLER_13_187
*5815 FILLER_13_190
*5816 FILLER_13_193
*5817 FILLER_13_196
*5818 FILLER_13_199
*5819 FILLER_13_202
*5820 FILLER_13_205
*5821 FILLER_13_208
*5822 FILLER_13_21
*5823 FILLER_13_211
*5824 FILLER_13_214
*5825 FILLER_13_217
*5826 FILLER_13_220
*5827 FILLER_13_223
*5828 FILLER_13_225
*5829 FILLER_13_228
*5830 FILLER_13_231
*5831 FILLER_13_234
*5832 FILLER_13_237
*5833 FILLER_13_24
*5834 FILLER_13_240
*5835 FILLER_13_243
*5836 FILLER_13_246
*5837 FILLER_13_249
*5838 FILLER_13_252
*5839 FILLER_13_255
*5840 FILLER_13_258
*5841 FILLER_13_261
*5842 FILLER_13_264
*5843 FILLER_13_267
*5844 FILLER_13_27
*5845 FILLER_13_270
*5846 FILLER_13_273
*5847 FILLER_13_276
*5848 FILLER_13_279
*5849 FILLER_13_281
*5850 FILLER_13_284
*5851 FILLER_13_287
*5852 FILLER_13_290
*5853 FILLER_13_293
*5854 FILLER_13_296
*5855 FILLER_13_299
*5856 FILLER_13_3
*5857 FILLER_13_30
*5858 FILLER_13_302
*5859 FILLER_13_305
*5860 FILLER_13_308
*5861 FILLER_13_311
*5862 FILLER_13_314
*5863 FILLER_13_317
*5864 FILLER_13_320
*5865 FILLER_13_323
*5866 FILLER_13_326
*5867 FILLER_13_329
*5868 FILLER_13_33
*5869 FILLER_13_332
*5870 FILLER_13_335
*5871 FILLER_13_337
*5872 FILLER_13_340
*5873 FILLER_13_343
*5874 FILLER_13_346
*5875 FILLER_13_349
*5876 FILLER_13_352
*5877 FILLER_13_355
*5878 FILLER_13_358
*5879 FILLER_13_36
*5880 FILLER_13_361
*5881 FILLER_13_364
*5882 FILLER_13_367
*5883 FILLER_13_370
*5884 FILLER_13_373
*5885 FILLER_13_376
*5886 FILLER_13_379
*5887 FILLER_13_382
*5888 FILLER_13_385
*5889 FILLER_13_388
*5890 FILLER_13_39
*5891 FILLER_13_391
*5892 FILLER_13_393
*5893 FILLER_13_396
*5894 FILLER_13_399
*5895 FILLER_13_402
*5896 FILLER_13_405
*5897 FILLER_13_408
*5898 FILLER_13_411
*5899 FILLER_13_414
*5900 FILLER_13_417
*5901 FILLER_13_42
*5902 FILLER_13_420
*5903 FILLER_13_423
*5904 FILLER_13_426
*5905 FILLER_13_429
*5906 FILLER_13_432
*5907 FILLER_13_435
*5908 FILLER_13_438
*5909 FILLER_13_441
*5910 FILLER_13_444
*5911 FILLER_13_447
*5912 FILLER_13_449
*5913 FILLER_13_45
*5914 FILLER_13_452
*5915 FILLER_13_455
*5916 FILLER_13_458
*5917 FILLER_13_461
*5918 FILLER_13_464
*5919 FILLER_13_467
*5920 FILLER_13_470
*5921 FILLER_13_473
*5922 FILLER_13_476
*5923 FILLER_13_479
*5924 FILLER_13_48
*5925 FILLER_13_482
*5926 FILLER_13_485
*5927 FILLER_13_488
*5928 FILLER_13_491
*5929 FILLER_13_494
*5930 FILLER_13_497
*5931 FILLER_13_500
*5932 FILLER_13_503
*5933 FILLER_13_505
*5934 FILLER_13_508
*5935 FILLER_13_51
*5936 FILLER_13_511
*5937 FILLER_13_514
*5938 FILLER_13_517
*5939 FILLER_13_520
*5940 FILLER_13_523
*5941 FILLER_13_526
*5942 FILLER_13_529
*5943 FILLER_13_532
*5944 FILLER_13_535
*5945 FILLER_13_538
*5946 FILLER_13_54
*5947 FILLER_13_541
*5948 FILLER_13_544
*5949 FILLER_13_547
*5950 FILLER_13_550
*5951 FILLER_13_553
*5952 FILLER_13_556
*5953 FILLER_13_559
*5954 FILLER_13_561
*5955 FILLER_13_564
*5956 FILLER_13_567
*5957 FILLER_13_57
*5958 FILLER_13_570
*5959 FILLER_13_573
*5960 FILLER_13_576
*5961 FILLER_13_579
*5962 FILLER_13_582
*5963 FILLER_13_585
*5964 FILLER_13_588
*5965 FILLER_13_591
*5966 FILLER_13_594
*5967 FILLER_13_597
*5968 FILLER_13_6
*5969 FILLER_13_60
*5970 FILLER_13_600
*5971 FILLER_13_603
*5972 FILLER_13_606
*5973 FILLER_13_609
*5974 FILLER_13_612
*5975 FILLER_13_615
*5976 FILLER_13_617
*5977 FILLER_13_620
*5978 FILLER_13_623
*5979 FILLER_13_626
*5980 FILLER_13_629
*5981 FILLER_13_63
*5982 FILLER_13_632
*5983 FILLER_13_635
*5984 FILLER_13_638
*5985 FILLER_13_641
*5986 FILLER_13_644
*5987 FILLER_13_647
*5988 FILLER_13_650
*5989 FILLER_13_653
*5990 FILLER_13_656
*5991 FILLER_13_659
*5992 FILLER_13_66
*5993 FILLER_13_662
*5994 FILLER_13_665
*5995 FILLER_13_668
*5996 FILLER_13_671
*5997 FILLER_13_673
*5998 FILLER_13_676
*5999 FILLER_13_679
*6000 FILLER_13_682
*6001 FILLER_13_685
*6002 FILLER_13_688
*6003 FILLER_13_69
*6004 FILLER_13_691
*6005 FILLER_13_694
*6006 FILLER_13_697
*6007 FILLER_13_700
*6008 FILLER_13_703
*6009 FILLER_13_706
*6010 FILLER_13_709
*6011 FILLER_13_712
*6012 FILLER_13_715
*6013 FILLER_13_718
*6014 FILLER_13_72
*6015 FILLER_13_721
*6016 FILLER_13_724
*6017 FILLER_13_727
*6018 FILLER_13_729
*6019 FILLER_13_732
*6020 FILLER_13_735
*6021 FILLER_13_738
*6022 FILLER_13_741
*6023 FILLER_13_744
*6024 FILLER_13_747
*6025 FILLER_13_75
*6026 FILLER_13_750
*6027 FILLER_13_753
*6028 FILLER_13_756
*6029 FILLER_13_759
*6030 FILLER_13_762
*6031 FILLER_13_765
*6032 FILLER_13_768
*6033 FILLER_13_771
*6034 FILLER_13_774
*6035 FILLER_13_777
*6036 FILLER_13_78
*6037 FILLER_13_780
*6038 FILLER_13_783
*6039 FILLER_13_785
*6040 FILLER_13_788
*6041 FILLER_13_791
*6042 FILLER_13_794
*6043 FILLER_13_797
*6044 FILLER_13_800
*6045 FILLER_13_803
*6046 FILLER_13_806
*6047 FILLER_13_809
*6048 FILLER_13_81
*6049 FILLER_13_812
*6050 FILLER_13_815
*6051 FILLER_13_818
*6052 FILLER_13_821
*6053 FILLER_13_824
*6054 FILLER_13_827
*6055 FILLER_13_830
*6056 FILLER_13_833
*6057 FILLER_13_836
*6058 FILLER_13_839
*6059 FILLER_13_84
*6060 FILLER_13_841
*6061 FILLER_13_844
*6062 FILLER_13_847
*6063 FILLER_13_850
*6064 FILLER_13_853
*6065 FILLER_13_856
*6066 FILLER_13_859
*6067 FILLER_13_862
*6068 FILLER_13_865
*6069 FILLER_13_868
*6070 FILLER_13_87
*6071 FILLER_13_871
*6072 FILLER_13_874
*6073 FILLER_13_877
*6074 FILLER_13_880
*6075 FILLER_13_883
*6076 FILLER_13_886
*6077 FILLER_13_889
*6078 FILLER_13_892
*6079 FILLER_13_895
*6080 FILLER_13_897
*6081 FILLER_13_9
*6082 FILLER_13_90
*6083 FILLER_13_900
*6084 FILLER_13_903
*6085 FILLER_13_906
*6086 FILLER_13_909
*6087 FILLER_13_912
*6088 FILLER_13_915
*6089 FILLER_13_918
*6090 FILLER_13_921
*6091 FILLER_13_924
*6092 FILLER_13_927
*6093 FILLER_13_93
*6094 FILLER_13_930
*6095 FILLER_13_933
*6096 FILLER_13_936
*6097 FILLER_13_939
*6098 FILLER_13_942
*6099 FILLER_13_945
*6100 FILLER_13_948
*6101 FILLER_13_951
*6102 FILLER_13_953
*6103 FILLER_13_956
*6104 FILLER_13_959
*6105 FILLER_13_96
*6106 FILLER_13_962
*6107 FILLER_13_965
*6108 FILLER_13_968
*6109 FILLER_13_971
*6110 FILLER_13_974
*6111 FILLER_13_977
*6112 FILLER_13_980
*6113 FILLER_13_983
*6114 FILLER_13_986
*6115 FILLER_13_989
*6116 FILLER_13_99
*6117 FILLER_13_992
*6118 FILLER_13_995
*6119 FILLER_13_998
*6120 FILLER_140_100
*6121 FILLER_140_103
*6122 FILLER_140_106
*6123 FILLER_140_109
*6124 FILLER_140_112
*6125 FILLER_140_12
*6126 FILLER_140_1208
*6127 FILLER_140_1211
*6128 FILLER_140_1214
*6129 FILLER_140_1217
*6130 FILLER_140_1220
*6131 FILLER_140_1223
*6132 FILLER_140_1226
*6133 FILLER_140_1229
*6134 FILLER_140_1232
*6135 FILLER_140_1234
*6136 FILLER_140_1237
*6137 FILLER_140_1240
*6138 FILLER_140_1243
*6139 FILLER_140_1246
*6140 FILLER_140_1249
*6141 FILLER_140_1252
*6142 FILLER_140_1255
*6143 FILLER_140_1258
*6144 FILLER_140_1261
*6145 FILLER_140_1264
*6146 FILLER_140_1267
*6147 FILLER_140_1270
*6148 FILLER_140_1273
*6149 FILLER_140_1276
*6150 FILLER_140_1279
*6151 FILLER_140_1282
*6152 FILLER_140_1285
*6153 FILLER_140_1288
*6154 FILLER_140_1290
*6155 FILLER_140_1293
*6156 FILLER_140_1296
*6157 FILLER_140_1299
*6158 FILLER_140_1302
*6159 FILLER_140_1305
*6160 FILLER_140_1308
*6161 FILLER_140_1311
*6162 FILLER_140_1314
*6163 FILLER_140_1317
*6164 FILLER_140_1320
*6165 FILLER_140_1323
*6166 FILLER_140_1326
*6167 FILLER_140_1329
*6168 FILLER_140_1332
*6169 FILLER_140_1335
*6170 FILLER_140_1338
*6171 FILLER_140_1341
*6172 FILLER_140_1344
*6173 FILLER_140_1346
*6174 FILLER_140_1349
*6175 FILLER_140_1352
*6176 FILLER_140_1355
*6177 FILLER_140_1358
*6178 FILLER_140_1361
*6179 FILLER_140_15
*6180 FILLER_140_18
*6181 FILLER_140_21
*6182 FILLER_140_24
*6183 FILLER_140_27
*6184 FILLER_140_29
*6185 FILLER_140_3
*6186 FILLER_140_32
*6187 FILLER_140_35
*6188 FILLER_140_38
*6189 FILLER_140_41
*6190 FILLER_140_44
*6191 FILLER_140_47
*6192 FILLER_140_50
*6193 FILLER_140_53
*6194 FILLER_140_56
*6195 FILLER_140_59
*6196 FILLER_140_6
*6197 FILLER_140_62
*6198 FILLER_140_65
*6199 FILLER_140_68
*6200 FILLER_140_71
*6201 FILLER_140_74
*6202 FILLER_140_77
*6203 FILLER_140_80
*6204 FILLER_140_83
*6205 FILLER_140_85
*6206 FILLER_140_88
*6207 FILLER_140_9
*6208 FILLER_140_91
*6209 FILLER_140_94
*6210 FILLER_140_97
*6211 FILLER_141_102
*6212 FILLER_141_105
*6213 FILLER_141_108
*6214 FILLER_141_111
*6215 FILLER_141_113
*6216 FILLER_141_12
*6217 FILLER_141_1208
*6218 FILLER_141_1211
*6219 FILLER_141_1214
*6220 FILLER_141_1217
*6221 FILLER_141_1220
*6222 FILLER_141_1223
*6223 FILLER_141_1226
*6224 FILLER_141_1229
*6225 FILLER_141_1232
*6226 FILLER_141_1235
*6227 FILLER_141_1238
*6228 FILLER_141_1241
*6229 FILLER_141_1244
*6230 FILLER_141_1247
*6231 FILLER_141_1250
*6232 FILLER_141_1253
*6233 FILLER_141_1256
*6234 FILLER_141_1259
*6235 FILLER_141_1262
*6236 FILLER_141_1265
*6237 FILLER_141_1268
*6238 FILLER_141_1271
*6239 FILLER_141_1274
*6240 FILLER_141_1277
*6241 FILLER_141_1280
*6242 FILLER_141_1283
*6243 FILLER_141_1286
*6244 FILLER_141_1289
*6245 FILLER_141_1292
*6246 FILLER_141_1295
*6247 FILLER_141_1298
*6248 FILLER_141_1301
*6249 FILLER_141_1304
*6250 FILLER_141_1307
*6251 FILLER_141_1310
*6252 FILLER_141_1313
*6253 FILLER_141_1316
*6254 FILLER_141_1318
*6255 FILLER_141_1321
*6256 FILLER_141_1324
*6257 FILLER_141_1327
*6258 FILLER_141_1330
*6259 FILLER_141_1333
*6260 FILLER_141_1336
*6261 FILLER_141_1339
*6262 FILLER_141_1342
*6263 FILLER_141_1345
*6264 FILLER_141_1348
*6265 FILLER_141_1351
*6266 FILLER_141_1354
*6267 FILLER_141_1357
*6268 FILLER_141_1360
*6269 FILLER_141_1363
*6270 FILLER_141_15
*6271 FILLER_141_18
*6272 FILLER_141_21
*6273 FILLER_141_24
*6274 FILLER_141_27
*6275 FILLER_141_3
*6276 FILLER_141_30
*6277 FILLER_141_33
*6278 FILLER_141_36
*6279 FILLER_141_39
*6280 FILLER_141_42
*6281 FILLER_141_45
*6282 FILLER_141_48
*6283 FILLER_141_51
*6284 FILLER_141_54
*6285 FILLER_141_57
*6286 FILLER_141_6
*6287 FILLER_141_60
*6288 FILLER_141_63
*6289 FILLER_141_66
*6290 FILLER_141_69
*6291 FILLER_141_72
*6292 FILLER_141_75
*6293 FILLER_141_78
*6294 FILLER_141_81
*6295 FILLER_141_84
*6296 FILLER_141_87
*6297 FILLER_141_9
*6298 FILLER_141_90
*6299 FILLER_141_93
*6300 FILLER_141_96
*6301 FILLER_141_99
*6302 FILLER_142_100
*6303 FILLER_142_103
*6304 FILLER_142_106
*6305 FILLER_142_109
*6306 FILLER_142_112
*6307 FILLER_142_12
*6308 FILLER_142_1208
*6309 FILLER_142_1211
*6310 FILLER_142_1214
*6311 FILLER_142_1217
*6312 FILLER_142_1220
*6313 FILLER_142_1223
*6314 FILLER_142_1226
*6315 FILLER_142_1229
*6316 FILLER_142_1232
*6317 FILLER_142_1234
*6318 FILLER_142_1237
*6319 FILLER_142_1240
*6320 FILLER_142_1243
*6321 FILLER_142_1246
*6322 FILLER_142_1249
*6323 FILLER_142_1252
*6324 FILLER_142_1255
*6325 FILLER_142_1258
*6326 FILLER_142_1261
*6327 FILLER_142_1264
*6328 FILLER_142_1267
*6329 FILLER_142_1270
*6330 FILLER_142_1273
*6331 FILLER_142_1276
*6332 FILLER_142_1279
*6333 FILLER_142_1282
*6334 FILLER_142_1285
*6335 FILLER_142_1288
*6336 FILLER_142_1290
*6337 FILLER_142_1293
*6338 FILLER_142_1296
*6339 FILLER_142_1299
*6340 FILLER_142_1302
*6341 FILLER_142_1305
*6342 FILLER_142_1308
*6343 FILLER_142_1311
*6344 FILLER_142_1314
*6345 FILLER_142_1317
*6346 FILLER_142_1320
*6347 FILLER_142_1323
*6348 FILLER_142_1326
*6349 FILLER_142_1329
*6350 FILLER_142_1332
*6351 FILLER_142_1335
*6352 FILLER_142_1338
*6353 FILLER_142_1341
*6354 FILLER_142_1344
*6355 FILLER_142_1346
*6356 FILLER_142_1349
*6357 FILLER_142_1352
*6358 FILLER_142_1355
*6359 FILLER_142_1358
*6360 FILLER_142_1361
*6361 FILLER_142_15
*6362 FILLER_142_18
*6363 FILLER_142_21
*6364 FILLER_142_24
*6365 FILLER_142_27
*6366 FILLER_142_29
*6367 FILLER_142_3
*6368 FILLER_142_32
*6369 FILLER_142_35
*6370 FILLER_142_38
*6371 FILLER_142_41
*6372 FILLER_142_44
*6373 FILLER_142_47
*6374 FILLER_142_50
*6375 FILLER_142_53
*6376 FILLER_142_56
*6377 FILLER_142_59
*6378 FILLER_142_6
*6379 FILLER_142_62
*6380 FILLER_142_65
*6381 FILLER_142_68
*6382 FILLER_142_71
*6383 FILLER_142_74
*6384 FILLER_142_77
*6385 FILLER_142_80
*6386 FILLER_142_83
*6387 FILLER_142_85
*6388 FILLER_142_88
*6389 FILLER_142_9
*6390 FILLER_142_91
*6391 FILLER_142_94
*6392 FILLER_142_97
*6393 FILLER_143_102
*6394 FILLER_143_105
*6395 FILLER_143_108
*6396 FILLER_143_111
*6397 FILLER_143_113
*6398 FILLER_143_12
*6399 FILLER_143_1208
*6400 FILLER_143_1211
*6401 FILLER_143_1214
*6402 FILLER_143_1217
*6403 FILLER_143_1220
*6404 FILLER_143_1223
*6405 FILLER_143_1226
*6406 FILLER_143_1229
*6407 FILLER_143_1232
*6408 FILLER_143_1235
*6409 FILLER_143_1238
*6410 FILLER_143_1241
*6411 FILLER_143_1244
*6412 FILLER_143_1247
*6413 FILLER_143_1250
*6414 FILLER_143_1253
*6415 FILLER_143_1256
*6416 FILLER_143_1259
*6417 FILLER_143_1262
*6418 FILLER_143_1265
*6419 FILLER_143_1268
*6420 FILLER_143_1271
*6421 FILLER_143_1274
*6422 FILLER_143_1277
*6423 FILLER_143_1280
*6424 FILLER_143_1283
*6425 FILLER_143_1286
*6426 FILLER_143_1289
*6427 FILLER_143_1292
*6428 FILLER_143_1295
*6429 FILLER_143_1298
*6430 FILLER_143_1301
*6431 FILLER_143_1304
*6432 FILLER_143_1307
*6433 FILLER_143_1310
*6434 FILLER_143_1313
*6435 FILLER_143_1316
*6436 FILLER_143_1318
*6437 FILLER_143_1321
*6438 FILLER_143_1324
*6439 FILLER_143_1327
*6440 FILLER_143_1330
*6441 FILLER_143_1333
*6442 FILLER_143_1336
*6443 FILLER_143_1339
*6444 FILLER_143_1342
*6445 FILLER_143_1345
*6446 FILLER_143_1348
*6447 FILLER_143_1353
*6448 FILLER_143_1356
*6449 FILLER_143_1359
*6450 FILLER_143_1362
*6451 FILLER_143_15
*6452 FILLER_143_18
*6453 FILLER_143_21
*6454 FILLER_143_24
*6455 FILLER_143_27
*6456 FILLER_143_3
*6457 FILLER_143_30
*6458 FILLER_143_33
*6459 FILLER_143_36
*6460 FILLER_143_39
*6461 FILLER_143_42
*6462 FILLER_143_45
*6463 FILLER_143_48
*6464 FILLER_143_51
*6465 FILLER_143_54
*6466 FILLER_143_57
*6467 FILLER_143_6
*6468 FILLER_143_60
*6469 FILLER_143_63
*6470 FILLER_143_66
*6471 FILLER_143_69
*6472 FILLER_143_72
*6473 FILLER_143_75
*6474 FILLER_143_78
*6475 FILLER_143_81
*6476 FILLER_143_84
*6477 FILLER_143_87
*6478 FILLER_143_9
*6479 FILLER_143_90
*6480 FILLER_143_93
*6481 FILLER_143_96
*6482 FILLER_143_99
*6483 FILLER_144_100
*6484 FILLER_144_103
*6485 FILLER_144_106
*6486 FILLER_144_109
*6487 FILLER_144_112
*6488 FILLER_144_12
*6489 FILLER_144_1208
*6490 FILLER_144_1211
*6491 FILLER_144_1214
*6492 FILLER_144_1217
*6493 FILLER_144_1220
*6494 FILLER_144_1223
*6495 FILLER_144_1226
*6496 FILLER_144_1229
*6497 FILLER_144_1232
*6498 FILLER_144_1234
*6499 FILLER_144_1237
*6500 FILLER_144_1240
*6501 FILLER_144_1243
*6502 FILLER_144_1246
*6503 FILLER_144_1249
*6504 FILLER_144_1252
*6505 FILLER_144_1255
*6506 FILLER_144_1258
*6507 FILLER_144_1261
*6508 FILLER_144_1264
*6509 FILLER_144_1267
*6510 FILLER_144_1270
*6511 FILLER_144_1273
*6512 FILLER_144_1276
*6513 FILLER_144_1279
*6514 FILLER_144_1282
*6515 FILLER_144_1285
*6516 FILLER_144_1288
*6517 FILLER_144_1290
*6518 FILLER_144_1293
*6519 FILLER_144_1296
*6520 FILLER_144_1299
*6521 FILLER_144_1302
*6522 FILLER_144_1305
*6523 FILLER_144_1308
*6524 FILLER_144_1311
*6525 FILLER_144_1314
*6526 FILLER_144_1317
*6527 FILLER_144_1320
*6528 FILLER_144_1323
*6529 FILLER_144_1326
*6530 FILLER_144_1329
*6531 FILLER_144_1332
*6532 FILLER_144_1335
*6533 FILLER_144_1338
*6534 FILLER_144_1341
*6535 FILLER_144_1344
*6536 FILLER_144_1346
*6537 FILLER_144_1349
*6538 FILLER_144_1352
*6539 FILLER_144_1355
*6540 FILLER_144_1358
*6541 FILLER_144_1361
*6542 FILLER_144_15
*6543 FILLER_144_18
*6544 FILLER_144_21
*6545 FILLER_144_24
*6546 FILLER_144_27
*6547 FILLER_144_29
*6548 FILLER_144_3
*6549 FILLER_144_32
*6550 FILLER_144_35
*6551 FILLER_144_38
*6552 FILLER_144_41
*6553 FILLER_144_44
*6554 FILLER_144_47
*6555 FILLER_144_50
*6556 FILLER_144_53
*6557 FILLER_144_56
*6558 FILLER_144_59
*6559 FILLER_144_6
*6560 FILLER_144_62
*6561 FILLER_144_65
*6562 FILLER_144_68
*6563 FILLER_144_71
*6564 FILLER_144_74
*6565 FILLER_144_77
*6566 FILLER_144_80
*6567 FILLER_144_83
*6568 FILLER_144_85
*6569 FILLER_144_88
*6570 FILLER_144_9
*6571 FILLER_144_91
*6572 FILLER_144_94
*6573 FILLER_144_97
*6574 FILLER_145_102
*6575 FILLER_145_105
*6576 FILLER_145_108
*6577 FILLER_145_111
*6578 FILLER_145_113
*6579 FILLER_145_12
*6580 FILLER_145_1208
*6581 FILLER_145_1211
*6582 FILLER_145_1214
*6583 FILLER_145_1217
*6584 FILLER_145_1220
*6585 FILLER_145_1223
*6586 FILLER_145_1226
*6587 FILLER_145_1229
*6588 FILLER_145_1232
*6589 FILLER_145_1235
*6590 FILLER_145_1238
*6591 FILLER_145_1241
*6592 FILLER_145_1244
*6593 FILLER_145_1247
*6594 FILLER_145_1250
*6595 FILLER_145_1253
*6596 FILLER_145_1256
*6597 FILLER_145_1259
*6598 FILLER_145_1262
*6599 FILLER_145_1265
*6600 FILLER_145_1268
*6601 FILLER_145_1271
*6602 FILLER_145_1274
*6603 FILLER_145_1277
*6604 FILLER_145_1280
*6605 FILLER_145_1283
*6606 FILLER_145_1286
*6607 FILLER_145_1289
*6608 FILLER_145_1292
*6609 FILLER_145_1295
*6610 FILLER_145_1298
*6611 FILLER_145_1301
*6612 FILLER_145_1304
*6613 FILLER_145_1307
*6614 FILLER_145_1310
*6615 FILLER_145_1313
*6616 FILLER_145_1316
*6617 FILLER_145_1318
*6618 FILLER_145_1321
*6619 FILLER_145_1324
*6620 FILLER_145_1327
*6621 FILLER_145_1330
*6622 FILLER_145_1333
*6623 FILLER_145_1336
*6624 FILLER_145_1339
*6625 FILLER_145_1342
*6626 FILLER_145_1345
*6627 FILLER_145_1348
*6628 FILLER_145_1351
*6629 FILLER_145_1354
*6630 FILLER_145_1357
*6631 FILLER_145_1360
*6632 FILLER_145_1363
*6633 FILLER_145_15
*6634 FILLER_145_18
*6635 FILLER_145_21
*6636 FILLER_145_24
*6637 FILLER_145_27
*6638 FILLER_145_3
*6639 FILLER_145_30
*6640 FILLER_145_33
*6641 FILLER_145_36
*6642 FILLER_145_39
*6643 FILLER_145_42
*6644 FILLER_145_45
*6645 FILLER_145_48
*6646 FILLER_145_51
*6647 FILLER_145_54
*6648 FILLER_145_57
*6649 FILLER_145_6
*6650 FILLER_145_60
*6651 FILLER_145_63
*6652 FILLER_145_66
*6653 FILLER_145_69
*6654 FILLER_145_72
*6655 FILLER_145_75
*6656 FILLER_145_78
*6657 FILLER_145_81
*6658 FILLER_145_84
*6659 FILLER_145_87
*6660 FILLER_145_9
*6661 FILLER_145_90
*6662 FILLER_145_93
*6663 FILLER_145_96
*6664 FILLER_145_99
*6665 FILLER_146_100
*6666 FILLER_146_103
*6667 FILLER_146_106
*6668 FILLER_146_109
*6669 FILLER_146_112
*6670 FILLER_146_12
*6671 FILLER_146_1208
*6672 FILLER_146_1211
*6673 FILLER_146_1214
*6674 FILLER_146_1217
*6675 FILLER_146_1220
*6676 FILLER_146_1223
*6677 FILLER_146_1226
*6678 FILLER_146_1229
*6679 FILLER_146_1232
*6680 FILLER_146_1234
*6681 FILLER_146_1237
*6682 FILLER_146_1240
*6683 FILLER_146_1243
*6684 FILLER_146_1246
*6685 FILLER_146_1249
*6686 FILLER_146_1252
*6687 FILLER_146_1255
*6688 FILLER_146_1258
*6689 FILLER_146_1261
*6690 FILLER_146_1264
*6691 FILLER_146_1267
*6692 FILLER_146_1270
*6693 FILLER_146_1273
*6694 FILLER_146_1276
*6695 FILLER_146_1279
*6696 FILLER_146_1282
*6697 FILLER_146_1285
*6698 FILLER_146_1288
*6699 FILLER_146_1290
*6700 FILLER_146_1293
*6701 FILLER_146_1296
*6702 FILLER_146_1299
*6703 FILLER_146_1302
*6704 FILLER_146_1305
*6705 FILLER_146_1308
*6706 FILLER_146_1311
*6707 FILLER_146_1314
*6708 FILLER_146_1317
*6709 FILLER_146_1320
*6710 FILLER_146_1323
*6711 FILLER_146_1326
*6712 FILLER_146_1329
*6713 FILLER_146_1332
*6714 FILLER_146_1335
*6715 FILLER_146_1338
*6716 FILLER_146_1341
*6717 FILLER_146_1344
*6718 FILLER_146_1346
*6719 FILLER_146_1349
*6720 FILLER_146_1352
*6721 FILLER_146_1355
*6722 FILLER_146_1358
*6723 FILLER_146_1361
*6724 FILLER_146_15
*6725 FILLER_146_18
*6726 FILLER_146_21
*6727 FILLER_146_24
*6728 FILLER_146_27
*6729 FILLER_146_29
*6730 FILLER_146_3
*6731 FILLER_146_32
*6732 FILLER_146_35
*6733 FILLER_146_38
*6734 FILLER_146_41
*6735 FILLER_146_44
*6736 FILLER_146_47
*6737 FILLER_146_50
*6738 FILLER_146_53
*6739 FILLER_146_56
*6740 FILLER_146_59
*6741 FILLER_146_6
*6742 FILLER_146_62
*6743 FILLER_146_65
*6744 FILLER_146_68
*6745 FILLER_146_71
*6746 FILLER_146_74
*6747 FILLER_146_77
*6748 FILLER_146_80
*6749 FILLER_146_83
*6750 FILLER_146_85
*6751 FILLER_146_88
*6752 FILLER_146_9
*6753 FILLER_146_91
*6754 FILLER_146_94
*6755 FILLER_146_97
*6756 FILLER_147_102
*6757 FILLER_147_105
*6758 FILLER_147_108
*6759 FILLER_147_111
*6760 FILLER_147_113
*6761 FILLER_147_12
*6762 FILLER_147_1208
*6763 FILLER_147_1211
*6764 FILLER_147_1214
*6765 FILLER_147_1217
*6766 FILLER_147_1220
*6767 FILLER_147_1223
*6768 FILLER_147_1226
*6769 FILLER_147_1229
*6770 FILLER_147_1232
*6771 FILLER_147_1235
*6772 FILLER_147_1238
*6773 FILLER_147_1241
*6774 FILLER_147_1244
*6775 FILLER_147_1247
*6776 FILLER_147_1250
*6777 FILLER_147_1253
*6778 FILLER_147_1256
*6779 FILLER_147_1259
*6780 FILLER_147_1262
*6781 FILLER_147_1265
*6782 FILLER_147_1268
*6783 FILLER_147_1271
*6784 FILLER_147_1274
*6785 FILLER_147_1277
*6786 FILLER_147_1280
*6787 FILLER_147_1283
*6788 FILLER_147_1286
*6789 FILLER_147_1289
*6790 FILLER_147_1292
*6791 FILLER_147_1295
*6792 FILLER_147_1298
*6793 FILLER_147_1301
*6794 FILLER_147_1304
*6795 FILLER_147_1307
*6796 FILLER_147_1310
*6797 FILLER_147_1313
*6798 FILLER_147_1316
*6799 FILLER_147_1318
*6800 FILLER_147_1321
*6801 FILLER_147_1324
*6802 FILLER_147_1327
*6803 FILLER_147_1330
*6804 FILLER_147_1333
*6805 FILLER_147_1336
*6806 FILLER_147_1339
*6807 FILLER_147_1342
*6808 FILLER_147_1345
*6809 FILLER_147_1348
*6810 FILLER_147_1351
*6811 FILLER_147_1354
*6812 FILLER_147_1357
*6813 FILLER_147_1360
*6814 FILLER_147_1363
*6815 FILLER_147_15
*6816 FILLER_147_18
*6817 FILLER_147_21
*6818 FILLER_147_24
*6819 FILLER_147_27
*6820 FILLER_147_3
*6821 FILLER_147_30
*6822 FILLER_147_33
*6823 FILLER_147_36
*6824 FILLER_147_39
*6825 FILLER_147_42
*6826 FILLER_147_45
*6827 FILLER_147_48
*6828 FILLER_147_51
*6829 FILLER_147_54
*6830 FILLER_147_57
*6831 FILLER_147_6
*6832 FILLER_147_60
*6833 FILLER_147_63
*6834 FILLER_147_66
*6835 FILLER_147_69
*6836 FILLER_147_72
*6837 FILLER_147_75
*6838 FILLER_147_78
*6839 FILLER_147_81
*6840 FILLER_147_84
*6841 FILLER_147_87
*6842 FILLER_147_9
*6843 FILLER_147_90
*6844 FILLER_147_93
*6845 FILLER_147_96
*6846 FILLER_147_99
*6847 FILLER_148_100
*6848 FILLER_148_103
*6849 FILLER_148_106
*6850 FILLER_148_109
*6851 FILLER_148_112
*6852 FILLER_148_12
*6853 FILLER_148_1208
*6854 FILLER_148_1211
*6855 FILLER_148_1214
*6856 FILLER_148_1217
*6857 FILLER_148_1220
*6858 FILLER_148_1223
*6859 FILLER_148_1226
*6860 FILLER_148_1229
*6861 FILLER_148_1232
*6862 FILLER_148_1234
*6863 FILLER_148_1237
*6864 FILLER_148_1240
*6865 FILLER_148_1243
*6866 FILLER_148_1246
*6867 FILLER_148_1249
*6868 FILLER_148_1252
*6869 FILLER_148_1255
*6870 FILLER_148_1258
*6871 FILLER_148_1261
*6872 FILLER_148_1264
*6873 FILLER_148_1267
*6874 FILLER_148_1270
*6875 FILLER_148_1273
*6876 FILLER_148_1276
*6877 FILLER_148_1279
*6878 FILLER_148_1282
*6879 FILLER_148_1285
*6880 FILLER_148_1288
*6881 FILLER_148_1290
*6882 FILLER_148_1293
*6883 FILLER_148_1296
*6884 FILLER_148_1299
*6885 FILLER_148_1302
*6886 FILLER_148_1305
*6887 FILLER_148_1308
*6888 FILLER_148_1311
*6889 FILLER_148_1314
*6890 FILLER_148_1317
*6891 FILLER_148_1320
*6892 FILLER_148_1323
*6893 FILLER_148_1326
*6894 FILLER_148_1329
*6895 FILLER_148_1332
*6896 FILLER_148_1335
*6897 FILLER_148_1338
*6898 FILLER_148_1341
*6899 FILLER_148_1344
*6900 FILLER_148_1346
*6901 FILLER_148_1349
*6902 FILLER_148_1352
*6903 FILLER_148_1355
*6904 FILLER_148_1358
*6905 FILLER_148_1361
*6906 FILLER_148_15
*6907 FILLER_148_18
*6908 FILLER_148_21
*6909 FILLER_148_24
*6910 FILLER_148_27
*6911 FILLER_148_29
*6912 FILLER_148_3
*6913 FILLER_148_32
*6914 FILLER_148_35
*6915 FILLER_148_38
*6916 FILLER_148_41
*6917 FILLER_148_44
*6918 FILLER_148_47
*6919 FILLER_148_50
*6920 FILLER_148_53
*6921 FILLER_148_56
*6922 FILLER_148_59
*6923 FILLER_148_6
*6924 FILLER_148_62
*6925 FILLER_148_65
*6926 FILLER_148_68
*6927 FILLER_148_71
*6928 FILLER_148_74
*6929 FILLER_148_77
*6930 FILLER_148_80
*6931 FILLER_148_83
*6932 FILLER_148_85
*6933 FILLER_148_88
*6934 FILLER_148_9
*6935 FILLER_148_91
*6936 FILLER_148_94
*6937 FILLER_148_97
*6938 FILLER_149_102
*6939 FILLER_149_105
*6940 FILLER_149_108
*6941 FILLER_149_111
*6942 FILLER_149_113
*6943 FILLER_149_12
*6944 FILLER_149_1208
*6945 FILLER_149_1211
*6946 FILLER_149_1214
*6947 FILLER_149_1217
*6948 FILLER_149_1220
*6949 FILLER_149_1223
*6950 FILLER_149_1226
*6951 FILLER_149_1229
*6952 FILLER_149_1232
*6953 FILLER_149_1235
*6954 FILLER_149_1238
*6955 FILLER_149_1241
*6956 FILLER_149_1244
*6957 FILLER_149_1247
*6958 FILLER_149_1250
*6959 FILLER_149_1253
*6960 FILLER_149_1256
*6961 FILLER_149_1259
*6962 FILLER_149_1262
*6963 FILLER_149_1265
*6964 FILLER_149_1268
*6965 FILLER_149_1271
*6966 FILLER_149_1274
*6967 FILLER_149_1277
*6968 FILLER_149_1280
*6969 FILLER_149_1283
*6970 FILLER_149_1286
*6971 FILLER_149_1289
*6972 FILLER_149_1292
*6973 FILLER_149_1295
*6974 FILLER_149_1298
*6975 FILLER_149_1301
*6976 FILLER_149_1304
*6977 FILLER_149_1307
*6978 FILLER_149_1310
*6979 FILLER_149_1313
*6980 FILLER_149_1316
*6981 FILLER_149_1318
*6982 FILLER_149_1321
*6983 FILLER_149_1324
*6984 FILLER_149_1327
*6985 FILLER_149_1330
*6986 FILLER_149_1333
*6987 FILLER_149_1336
*6988 FILLER_149_1339
*6989 FILLER_149_1342
*6990 FILLER_149_1345
*6991 FILLER_149_1348
*6992 FILLER_149_1351
*6993 FILLER_149_1354
*6994 FILLER_149_1357
*6995 FILLER_149_1360
*6996 FILLER_149_1363
*6997 FILLER_149_15
*6998 FILLER_149_18
*6999 FILLER_149_21
*7000 FILLER_149_24
*7001 FILLER_149_27
*7002 FILLER_149_3
*7003 FILLER_149_30
*7004 FILLER_149_33
*7005 FILLER_149_36
*7006 FILLER_149_39
*7007 FILLER_149_42
*7008 FILLER_149_45
*7009 FILLER_149_48
*7010 FILLER_149_51
*7011 FILLER_149_54
*7012 FILLER_149_57
*7013 FILLER_149_6
*7014 FILLER_149_60
*7015 FILLER_149_63
*7016 FILLER_149_66
*7017 FILLER_149_69
*7018 FILLER_149_72
*7019 FILLER_149_75
*7020 FILLER_149_78
*7021 FILLER_149_81
*7022 FILLER_149_84
*7023 FILLER_149_87
*7024 FILLER_149_9
*7025 FILLER_149_90
*7026 FILLER_149_93
*7027 FILLER_149_96
*7028 FILLER_149_99
*7029 FILLER_14_100
*7030 FILLER_14_1002
*7031 FILLER_14_1005
*7032 FILLER_14_1008
*7033 FILLER_14_1011
*7034 FILLER_14_1014
*7035 FILLER_14_1017
*7036 FILLER_14_1020
*7037 FILLER_14_1023
*7038 FILLER_14_1026
*7039 FILLER_14_1029
*7040 FILLER_14_103
*7041 FILLER_14_1032
*7042 FILLER_14_1035
*7043 FILLER_14_1037
*7044 FILLER_14_1040
*7045 FILLER_14_1043
*7046 FILLER_14_1046
*7047 FILLER_14_1049
*7048 FILLER_14_1052
*7049 FILLER_14_1055
*7050 FILLER_14_1058
*7051 FILLER_14_106
*7052 FILLER_14_1061
*7053 FILLER_14_1064
*7054 FILLER_14_1067
*7055 FILLER_14_1070
*7056 FILLER_14_1073
*7057 FILLER_14_1076
*7058 FILLER_14_1079
*7059 FILLER_14_1082
*7060 FILLER_14_1085
*7061 FILLER_14_1088
*7062 FILLER_14_109
*7063 FILLER_14_1091
*7064 FILLER_14_1093
*7065 FILLER_14_1096
*7066 FILLER_14_1099
*7067 FILLER_14_1102
*7068 FILLER_14_1105
*7069 FILLER_14_1108
*7070 FILLER_14_1111
*7071 FILLER_14_1114
*7072 FILLER_14_1117
*7073 FILLER_14_112
*7074 FILLER_14_1120
*7075 FILLER_14_1123
*7076 FILLER_14_1126
*7077 FILLER_14_1129
*7078 FILLER_14_1132
*7079 FILLER_14_1135
*7080 FILLER_14_1138
*7081 FILLER_14_1141
*7082 FILLER_14_1144
*7083 FILLER_14_1147
*7084 FILLER_14_1149
*7085 FILLER_14_115
*7086 FILLER_14_1152
*7087 FILLER_14_1155
*7088 FILLER_14_1158
*7089 FILLER_14_1161
*7090 FILLER_14_1164
*7091 FILLER_14_1167
*7092 FILLER_14_1170
*7093 FILLER_14_1173
*7094 FILLER_14_1176
*7095 FILLER_14_1179
*7096 FILLER_14_118
*7097 FILLER_14_1182
*7098 FILLER_14_1185
*7099 FILLER_14_1188
*7100 FILLER_14_1191
*7101 FILLER_14_1194
*7102 FILLER_14_1197
*7103 FILLER_14_12
*7104 FILLER_14_1200
*7105 FILLER_14_1203
*7106 FILLER_14_1205
*7107 FILLER_14_1208
*7108 FILLER_14_121
*7109 FILLER_14_1211
*7110 FILLER_14_1214
*7111 FILLER_14_1217
*7112 FILLER_14_1220
*7113 FILLER_14_1223
*7114 FILLER_14_1226
*7115 FILLER_14_1229
*7116 FILLER_14_1232
*7117 FILLER_14_1235
*7118 FILLER_14_1238
*7119 FILLER_14_124
*7120 FILLER_14_1241
*7121 FILLER_14_1244
*7122 FILLER_14_1247
*7123 FILLER_14_1250
*7124 FILLER_14_1253
*7125 FILLER_14_1256
*7126 FILLER_14_1259
*7127 FILLER_14_1261
*7128 FILLER_14_1264
*7129 FILLER_14_1267
*7130 FILLER_14_127
*7131 FILLER_14_1270
*7132 FILLER_14_1273
*7133 FILLER_14_1276
*7134 FILLER_14_1279
*7135 FILLER_14_1282
*7136 FILLER_14_1285
*7137 FILLER_14_1288
*7138 FILLER_14_1291
*7139 FILLER_14_1294
*7140 FILLER_14_1297
*7141 FILLER_14_130
*7142 FILLER_14_1300
*7143 FILLER_14_1303
*7144 FILLER_14_1306
*7145 FILLER_14_1309
*7146 FILLER_14_1312
*7147 FILLER_14_1315
*7148 FILLER_14_1317
*7149 FILLER_14_1320
*7150 FILLER_14_1323
*7151 FILLER_14_1326
*7152 FILLER_14_1329
*7153 FILLER_14_133
*7154 FILLER_14_1332
*7155 FILLER_14_1335
*7156 FILLER_14_1338
*7157 FILLER_14_1341
*7158 FILLER_14_1344
*7159 FILLER_14_1347
*7160 FILLER_14_1350
*7161 FILLER_14_1353
*7162 FILLER_14_1356
*7163 FILLER_14_1359
*7164 FILLER_14_136
*7165 FILLER_14_1362
*7166 FILLER_14_139
*7167 FILLER_14_141
*7168 FILLER_14_144
*7169 FILLER_14_147
*7170 FILLER_14_15
*7171 FILLER_14_150
*7172 FILLER_14_153
*7173 FILLER_14_156
*7174 FILLER_14_159
*7175 FILLER_14_162
*7176 FILLER_14_165
*7177 FILLER_14_168
*7178 FILLER_14_171
*7179 FILLER_14_174
*7180 FILLER_14_177
*7181 FILLER_14_18
*7182 FILLER_14_180
*7183 FILLER_14_183
*7184 FILLER_14_186
*7185 FILLER_14_189
*7186 FILLER_14_192
*7187 FILLER_14_195
*7188 FILLER_14_197
*7189 FILLER_14_200
*7190 FILLER_14_203
*7191 FILLER_14_206
*7192 FILLER_14_209
*7193 FILLER_14_21
*7194 FILLER_14_212
*7195 FILLER_14_215
*7196 FILLER_14_218
*7197 FILLER_14_221
*7198 FILLER_14_224
*7199 FILLER_14_227
*7200 FILLER_14_230
*7201 FILLER_14_233
*7202 FILLER_14_236
*7203 FILLER_14_239
*7204 FILLER_14_24
*7205 FILLER_14_242
*7206 FILLER_14_245
*7207 FILLER_14_248
*7208 FILLER_14_251
*7209 FILLER_14_253
*7210 FILLER_14_256
*7211 FILLER_14_259
*7212 FILLER_14_262
*7213 FILLER_14_265
*7214 FILLER_14_268
*7215 FILLER_14_27
*7216 FILLER_14_271
*7217 FILLER_14_274
*7218 FILLER_14_277
*7219 FILLER_14_280
*7220 FILLER_14_283
*7221 FILLER_14_286
*7222 FILLER_14_289
*7223 FILLER_14_29
*7224 FILLER_14_292
*7225 FILLER_14_295
*7226 FILLER_14_298
*7227 FILLER_14_3
*7228 FILLER_14_301
*7229 FILLER_14_304
*7230 FILLER_14_307
*7231 FILLER_14_309
*7232 FILLER_14_312
*7233 FILLER_14_315
*7234 FILLER_14_318
*7235 FILLER_14_32
*7236 FILLER_14_321
*7237 FILLER_14_324
*7238 FILLER_14_327
*7239 FILLER_14_330
*7240 FILLER_14_333
*7241 FILLER_14_336
*7242 FILLER_14_339
*7243 FILLER_14_342
*7244 FILLER_14_345
*7245 FILLER_14_348
*7246 FILLER_14_35
*7247 FILLER_14_351
*7248 FILLER_14_354
*7249 FILLER_14_357
*7250 FILLER_14_360
*7251 FILLER_14_363
*7252 FILLER_14_365
*7253 FILLER_14_368
*7254 FILLER_14_371
*7255 FILLER_14_374
*7256 FILLER_14_377
*7257 FILLER_14_38
*7258 FILLER_14_380
*7259 FILLER_14_383
*7260 FILLER_14_386
*7261 FILLER_14_389
*7262 FILLER_14_392
*7263 FILLER_14_395
*7264 FILLER_14_398
*7265 FILLER_14_401
*7266 FILLER_14_404
*7267 FILLER_14_407
*7268 FILLER_14_41
*7269 FILLER_14_410
*7270 FILLER_14_413
*7271 FILLER_14_416
*7272 FILLER_14_419
*7273 FILLER_14_421
*7274 FILLER_14_424
*7275 FILLER_14_427
*7276 FILLER_14_430
*7277 FILLER_14_433
*7278 FILLER_14_436
*7279 FILLER_14_439
*7280 FILLER_14_44
*7281 FILLER_14_442
*7282 FILLER_14_445
*7283 FILLER_14_448
*7284 FILLER_14_451
*7285 FILLER_14_454
*7286 FILLER_14_457
*7287 FILLER_14_460
*7288 FILLER_14_463
*7289 FILLER_14_466
*7290 FILLER_14_469
*7291 FILLER_14_47
*7292 FILLER_14_472
*7293 FILLER_14_475
*7294 FILLER_14_477
*7295 FILLER_14_480
*7296 FILLER_14_483
*7297 FILLER_14_486
*7298 FILLER_14_489
*7299 FILLER_14_492
*7300 FILLER_14_495
*7301 FILLER_14_498
*7302 FILLER_14_50
*7303 FILLER_14_501
*7304 FILLER_14_504
*7305 FILLER_14_507
*7306 FILLER_14_510
*7307 FILLER_14_513
*7308 FILLER_14_516
*7309 FILLER_14_519
*7310 FILLER_14_522
*7311 FILLER_14_525
*7312 FILLER_14_528
*7313 FILLER_14_53
*7314 FILLER_14_531
*7315 FILLER_14_533
*7316 FILLER_14_536
*7317 FILLER_14_539
*7318 FILLER_14_542
*7319 FILLER_14_545
*7320 FILLER_14_548
*7321 FILLER_14_551
*7322 FILLER_14_554
*7323 FILLER_14_557
*7324 FILLER_14_56
*7325 FILLER_14_560
*7326 FILLER_14_563
*7327 FILLER_14_566
*7328 FILLER_14_569
*7329 FILLER_14_572
*7330 FILLER_14_575
*7331 FILLER_14_578
*7332 FILLER_14_581
*7333 FILLER_14_584
*7334 FILLER_14_587
*7335 FILLER_14_589
*7336 FILLER_14_59
*7337 FILLER_14_592
*7338 FILLER_14_595
*7339 FILLER_14_598
*7340 FILLER_14_6
*7341 FILLER_14_601
*7342 FILLER_14_604
*7343 FILLER_14_607
*7344 FILLER_14_610
*7345 FILLER_14_613
*7346 FILLER_14_616
*7347 FILLER_14_619
*7348 FILLER_14_62
*7349 FILLER_14_622
*7350 FILLER_14_625
*7351 FILLER_14_628
*7352 FILLER_14_631
*7353 FILLER_14_634
*7354 FILLER_14_637
*7355 FILLER_14_640
*7356 FILLER_14_643
*7357 FILLER_14_645
*7358 FILLER_14_648
*7359 FILLER_14_65
*7360 FILLER_14_651
*7361 FILLER_14_654
*7362 FILLER_14_657
*7363 FILLER_14_660
*7364 FILLER_14_663
*7365 FILLER_14_666
*7366 FILLER_14_669
*7367 FILLER_14_672
*7368 FILLER_14_675
*7369 FILLER_14_678
*7370 FILLER_14_68
*7371 FILLER_14_681
*7372 FILLER_14_684
*7373 FILLER_14_687
*7374 FILLER_14_690
*7375 FILLER_14_693
*7376 FILLER_14_696
*7377 FILLER_14_699
*7378 FILLER_14_701
*7379 FILLER_14_704
*7380 FILLER_14_707
*7381 FILLER_14_71
*7382 FILLER_14_710
*7383 FILLER_14_713
*7384 FILLER_14_716
*7385 FILLER_14_719
*7386 FILLER_14_722
*7387 FILLER_14_725
*7388 FILLER_14_728
*7389 FILLER_14_731
*7390 FILLER_14_734
*7391 FILLER_14_737
*7392 FILLER_14_74
*7393 FILLER_14_740
*7394 FILLER_14_743
*7395 FILLER_14_746
*7396 FILLER_14_749
*7397 FILLER_14_752
*7398 FILLER_14_755
*7399 FILLER_14_757
*7400 FILLER_14_760
*7401 FILLER_14_763
*7402 FILLER_14_766
*7403 FILLER_14_769
*7404 FILLER_14_77
*7405 FILLER_14_772
*7406 FILLER_14_775
*7407 FILLER_14_778
*7408 FILLER_14_781
*7409 FILLER_14_784
*7410 FILLER_14_787
*7411 FILLER_14_790
*7412 FILLER_14_793
*7413 FILLER_14_796
*7414 FILLER_14_799
*7415 FILLER_14_80
*7416 FILLER_14_802
*7417 FILLER_14_805
*7418 FILLER_14_808
*7419 FILLER_14_811
*7420 FILLER_14_813
*7421 FILLER_14_816
*7422 FILLER_14_819
*7423 FILLER_14_822
*7424 FILLER_14_825
*7425 FILLER_14_828
*7426 FILLER_14_83
*7427 FILLER_14_831
*7428 FILLER_14_834
*7429 FILLER_14_837
*7430 FILLER_14_840
*7431 FILLER_14_843
*7432 FILLER_14_846
*7433 FILLER_14_849
*7434 FILLER_14_85
*7435 FILLER_14_852
*7436 FILLER_14_855
*7437 FILLER_14_858
*7438 FILLER_14_861
*7439 FILLER_14_864
*7440 FILLER_14_867
*7441 FILLER_14_869
*7442 FILLER_14_872
*7443 FILLER_14_875
*7444 FILLER_14_878
*7445 FILLER_14_88
*7446 FILLER_14_881
*7447 FILLER_14_884
*7448 FILLER_14_887
*7449 FILLER_14_890
*7450 FILLER_14_893
*7451 FILLER_14_896
*7452 FILLER_14_899
*7453 FILLER_14_9
*7454 FILLER_14_902
*7455 FILLER_14_905
*7456 FILLER_14_908
*7457 FILLER_14_91
*7458 FILLER_14_911
*7459 FILLER_14_914
*7460 FILLER_14_917
*7461 FILLER_14_920
*7462 FILLER_14_923
*7463 FILLER_14_925
*7464 FILLER_14_928
*7465 FILLER_14_931
*7466 FILLER_14_934
*7467 FILLER_14_937
*7468 FILLER_14_94
*7469 FILLER_14_940
*7470 FILLER_14_943
*7471 FILLER_14_946
*7472 FILLER_14_949
*7473 FILLER_14_952
*7474 FILLER_14_955
*7475 FILLER_14_958
*7476 FILLER_14_961
*7477 FILLER_14_964
*7478 FILLER_14_967
*7479 FILLER_14_97
*7480 FILLER_14_970
*7481 FILLER_14_973
*7482 FILLER_14_976
*7483 FILLER_14_979
*7484 FILLER_14_981
*7485 FILLER_14_984
*7486 FILLER_14_987
*7487 FILLER_14_990
*7488 FILLER_14_993
*7489 FILLER_14_996
*7490 FILLER_14_999
*7491 FILLER_150_100
*7492 FILLER_150_103
*7493 FILLER_150_106
*7494 FILLER_150_109
*7495 FILLER_150_112
*7496 FILLER_150_12
*7497 FILLER_150_1208
*7498 FILLER_150_1211
*7499 FILLER_150_1214
*7500 FILLER_150_1217
*7501 FILLER_150_1220
*7502 FILLER_150_1223
*7503 FILLER_150_1226
*7504 FILLER_150_1229
*7505 FILLER_150_1232
*7506 FILLER_150_1234
*7507 FILLER_150_1237
*7508 FILLER_150_1240
*7509 FILLER_150_1243
*7510 FILLER_150_1246
*7511 FILLER_150_1249
*7512 FILLER_150_1252
*7513 FILLER_150_1255
*7514 FILLER_150_1258
*7515 FILLER_150_1261
*7516 FILLER_150_1264
*7517 FILLER_150_1267
*7518 FILLER_150_1270
*7519 FILLER_150_1273
*7520 FILLER_150_1276
*7521 FILLER_150_1279
*7522 FILLER_150_1282
*7523 FILLER_150_1285
*7524 FILLER_150_1288
*7525 FILLER_150_1290
*7526 FILLER_150_1293
*7527 FILLER_150_1296
*7528 FILLER_150_1299
*7529 FILLER_150_1302
*7530 FILLER_150_1305
*7531 FILLER_150_1308
*7532 FILLER_150_1311
*7533 FILLER_150_1314
*7534 FILLER_150_1317
*7535 FILLER_150_1320
*7536 FILLER_150_1323
*7537 FILLER_150_1326
*7538 FILLER_150_1329
*7539 FILLER_150_1332
*7540 FILLER_150_1335
*7541 FILLER_150_1338
*7542 FILLER_150_1341
*7543 FILLER_150_1344
*7544 FILLER_150_1346
*7545 FILLER_150_1349
*7546 FILLER_150_1352
*7547 FILLER_150_1355
*7548 FILLER_150_1358
*7549 FILLER_150_1361
*7550 FILLER_150_15
*7551 FILLER_150_18
*7552 FILLER_150_21
*7553 FILLER_150_24
*7554 FILLER_150_27
*7555 FILLER_150_29
*7556 FILLER_150_3
*7557 FILLER_150_32
*7558 FILLER_150_35
*7559 FILLER_150_38
*7560 FILLER_150_41
*7561 FILLER_150_44
*7562 FILLER_150_47
*7563 FILLER_150_50
*7564 FILLER_150_53
*7565 FILLER_150_56
*7566 FILLER_150_59
*7567 FILLER_150_6
*7568 FILLER_150_62
*7569 FILLER_150_65
*7570 FILLER_150_68
*7571 FILLER_150_71
*7572 FILLER_150_74
*7573 FILLER_150_77
*7574 FILLER_150_80
*7575 FILLER_150_83
*7576 FILLER_150_85
*7577 FILLER_150_88
*7578 FILLER_150_9
*7579 FILLER_150_91
*7580 FILLER_150_94
*7581 FILLER_150_97
*7582 FILLER_151_102
*7583 FILLER_151_105
*7584 FILLER_151_108
*7585 FILLER_151_111
*7586 FILLER_151_113
*7587 FILLER_151_12
*7588 FILLER_151_1208
*7589 FILLER_151_1211
*7590 FILLER_151_1214
*7591 FILLER_151_1217
*7592 FILLER_151_1220
*7593 FILLER_151_1223
*7594 FILLER_151_1226
*7595 FILLER_151_1229
*7596 FILLER_151_1232
*7597 FILLER_151_1235
*7598 FILLER_151_1238
*7599 FILLER_151_1241
*7600 FILLER_151_1244
*7601 FILLER_151_1247
*7602 FILLER_151_1250
*7603 FILLER_151_1253
*7604 FILLER_151_1256
*7605 FILLER_151_1259
*7606 FILLER_151_1262
*7607 FILLER_151_1265
*7608 FILLER_151_1268
*7609 FILLER_151_1271
*7610 FILLER_151_1274
*7611 FILLER_151_1277
*7612 FILLER_151_1280
*7613 FILLER_151_1283
*7614 FILLER_151_1286
*7615 FILLER_151_1289
*7616 FILLER_151_1292
*7617 FILLER_151_1295
*7618 FILLER_151_1298
*7619 FILLER_151_1301
*7620 FILLER_151_1304
*7621 FILLER_151_1307
*7622 FILLER_151_1310
*7623 FILLER_151_1313
*7624 FILLER_151_1316
*7625 FILLER_151_1318
*7626 FILLER_151_1321
*7627 FILLER_151_1324
*7628 FILLER_151_1327
*7629 FILLER_151_1330
*7630 FILLER_151_1333
*7631 FILLER_151_1336
*7632 FILLER_151_1339
*7633 FILLER_151_1342
*7634 FILLER_151_1345
*7635 FILLER_151_1348
*7636 FILLER_151_1351
*7637 FILLER_151_1354
*7638 FILLER_151_1357
*7639 FILLER_151_1360
*7640 FILLER_151_1363
*7641 FILLER_151_15
*7642 FILLER_151_18
*7643 FILLER_151_21
*7644 FILLER_151_24
*7645 FILLER_151_27
*7646 FILLER_151_3
*7647 FILLER_151_30
*7648 FILLER_151_33
*7649 FILLER_151_36
*7650 FILLER_151_39
*7651 FILLER_151_42
*7652 FILLER_151_45
*7653 FILLER_151_48
*7654 FILLER_151_51
*7655 FILLER_151_54
*7656 FILLER_151_57
*7657 FILLER_151_6
*7658 FILLER_151_60
*7659 FILLER_151_63
*7660 FILLER_151_66
*7661 FILLER_151_69
*7662 FILLER_151_72
*7663 FILLER_151_75
*7664 FILLER_151_78
*7665 FILLER_151_81
*7666 FILLER_151_84
*7667 FILLER_151_87
*7668 FILLER_151_9
*7669 FILLER_151_90
*7670 FILLER_151_93
*7671 FILLER_151_96
*7672 FILLER_151_99
*7673 FILLER_152_100
*7674 FILLER_152_103
*7675 FILLER_152_106
*7676 FILLER_152_109
*7677 FILLER_152_112
*7678 FILLER_152_12
*7679 FILLER_152_1208
*7680 FILLER_152_1211
*7681 FILLER_152_1214
*7682 FILLER_152_1217
*7683 FILLER_152_1220
*7684 FILLER_152_1223
*7685 FILLER_152_1226
*7686 FILLER_152_1229
*7687 FILLER_152_1232
*7688 FILLER_152_1234
*7689 FILLER_152_1237
*7690 FILLER_152_1240
*7691 FILLER_152_1243
*7692 FILLER_152_1246
*7693 FILLER_152_1249
*7694 FILLER_152_1252
*7695 FILLER_152_1255
*7696 FILLER_152_1258
*7697 FILLER_152_1261
*7698 FILLER_152_1264
*7699 FILLER_152_1267
*7700 FILLER_152_1270
*7701 FILLER_152_1273
*7702 FILLER_152_1276
*7703 FILLER_152_1279
*7704 FILLER_152_1282
*7705 FILLER_152_1285
*7706 FILLER_152_1288
*7707 FILLER_152_1290
*7708 FILLER_152_1293
*7709 FILLER_152_1296
*7710 FILLER_152_1299
*7711 FILLER_152_1302
*7712 FILLER_152_1305
*7713 FILLER_152_1308
*7714 FILLER_152_1311
*7715 FILLER_152_1314
*7716 FILLER_152_1317
*7717 FILLER_152_1320
*7718 FILLER_152_1323
*7719 FILLER_152_1326
*7720 FILLER_152_1329
*7721 FILLER_152_1332
*7722 FILLER_152_1335
*7723 FILLER_152_1338
*7724 FILLER_152_1341
*7725 FILLER_152_1344
*7726 FILLER_152_1346
*7727 FILLER_152_1349
*7728 FILLER_152_1352
*7729 FILLER_152_1355
*7730 FILLER_152_1358
*7731 FILLER_152_1361
*7732 FILLER_152_15
*7733 FILLER_152_18
*7734 FILLER_152_21
*7735 FILLER_152_24
*7736 FILLER_152_27
*7737 FILLER_152_29
*7738 FILLER_152_3
*7739 FILLER_152_32
*7740 FILLER_152_35
*7741 FILLER_152_38
*7742 FILLER_152_41
*7743 FILLER_152_44
*7744 FILLER_152_47
*7745 FILLER_152_50
*7746 FILLER_152_53
*7747 FILLER_152_56
*7748 FILLER_152_59
*7749 FILLER_152_6
*7750 FILLER_152_62
*7751 FILLER_152_65
*7752 FILLER_152_68
*7753 FILLER_152_71
*7754 FILLER_152_74
*7755 FILLER_152_77
*7756 FILLER_152_80
*7757 FILLER_152_83
*7758 FILLER_152_85
*7759 FILLER_152_88
*7760 FILLER_152_9
*7761 FILLER_152_91
*7762 FILLER_152_94
*7763 FILLER_152_97
*7764 FILLER_153_102
*7765 FILLER_153_105
*7766 FILLER_153_108
*7767 FILLER_153_111
*7768 FILLER_153_113
*7769 FILLER_153_12
*7770 FILLER_153_1208
*7771 FILLER_153_1211
*7772 FILLER_153_1214
*7773 FILLER_153_1217
*7774 FILLER_153_1220
*7775 FILLER_153_1223
*7776 FILLER_153_1226
*7777 FILLER_153_1229
*7778 FILLER_153_1232
*7779 FILLER_153_1235
*7780 FILLER_153_1238
*7781 FILLER_153_1241
*7782 FILLER_153_1244
*7783 FILLER_153_1247
*7784 FILLER_153_1250
*7785 FILLER_153_1253
*7786 FILLER_153_1256
*7787 FILLER_153_1259
*7788 FILLER_153_1262
*7789 FILLER_153_1265
*7790 FILLER_153_1268
*7791 FILLER_153_1271
*7792 FILLER_153_1274
*7793 FILLER_153_1277
*7794 FILLER_153_1280
*7795 FILLER_153_1283
*7796 FILLER_153_1286
*7797 FILLER_153_1289
*7798 FILLER_153_1292
*7799 FILLER_153_1295
*7800 FILLER_153_1298
*7801 FILLER_153_1301
*7802 FILLER_153_1304
*7803 FILLER_153_1307
*7804 FILLER_153_1310
*7805 FILLER_153_1313
*7806 FILLER_153_1316
*7807 FILLER_153_1318
*7808 FILLER_153_1321
*7809 FILLER_153_1324
*7810 FILLER_153_1327
*7811 FILLER_153_1330
*7812 FILLER_153_1333
*7813 FILLER_153_1336
*7814 FILLER_153_1339
*7815 FILLER_153_1342
*7816 FILLER_153_1345
*7817 FILLER_153_1348
*7818 FILLER_153_1351
*7819 FILLER_153_1354
*7820 FILLER_153_1357
*7821 FILLER_153_1360
*7822 FILLER_153_1363
*7823 FILLER_153_15
*7824 FILLER_153_18
*7825 FILLER_153_21
*7826 FILLER_153_24
*7827 FILLER_153_27
*7828 FILLER_153_3
*7829 FILLER_153_30
*7830 FILLER_153_33
*7831 FILLER_153_36
*7832 FILLER_153_39
*7833 FILLER_153_42
*7834 FILLER_153_45
*7835 FILLER_153_48
*7836 FILLER_153_51
*7837 FILLER_153_54
*7838 FILLER_153_57
*7839 FILLER_153_6
*7840 FILLER_153_60
*7841 FILLER_153_63
*7842 FILLER_153_66
*7843 FILLER_153_69
*7844 FILLER_153_72
*7845 FILLER_153_75
*7846 FILLER_153_78
*7847 FILLER_153_81
*7848 FILLER_153_84
*7849 FILLER_153_87
*7850 FILLER_153_9
*7851 FILLER_153_90
*7852 FILLER_153_93
*7853 FILLER_153_96
*7854 FILLER_153_99
*7855 FILLER_154_100
*7856 FILLER_154_103
*7857 FILLER_154_106
*7858 FILLER_154_109
*7859 FILLER_154_112
*7860 FILLER_154_12
*7861 FILLER_154_1208
*7862 FILLER_154_1211
*7863 FILLER_154_1214
*7864 FILLER_154_1217
*7865 FILLER_154_1220
*7866 FILLER_154_1223
*7867 FILLER_154_1226
*7868 FILLER_154_1229
*7869 FILLER_154_1232
*7870 FILLER_154_1234
*7871 FILLER_154_1237
*7872 FILLER_154_1240
*7873 FILLER_154_1243
*7874 FILLER_154_1246
*7875 FILLER_154_1249
*7876 FILLER_154_1252
*7877 FILLER_154_1255
*7878 FILLER_154_1258
*7879 FILLER_154_1261
*7880 FILLER_154_1264
*7881 FILLER_154_1267
*7882 FILLER_154_1270
*7883 FILLER_154_1273
*7884 FILLER_154_1276
*7885 FILLER_154_1279
*7886 FILLER_154_1282
*7887 FILLER_154_1285
*7888 FILLER_154_1288
*7889 FILLER_154_1290
*7890 FILLER_154_1293
*7891 FILLER_154_1296
*7892 FILLER_154_1299
*7893 FILLER_154_1302
*7894 FILLER_154_1305
*7895 FILLER_154_1308
*7896 FILLER_154_1311
*7897 FILLER_154_1314
*7898 FILLER_154_1317
*7899 FILLER_154_1320
*7900 FILLER_154_1323
*7901 FILLER_154_1326
*7902 FILLER_154_1329
*7903 FILLER_154_1332
*7904 FILLER_154_1335
*7905 FILLER_154_1338
*7906 FILLER_154_1341
*7907 FILLER_154_1344
*7908 FILLER_154_1346
*7909 FILLER_154_1349
*7910 FILLER_154_1352
*7911 FILLER_154_1355
*7912 FILLER_154_1358
*7913 FILLER_154_1361
*7914 FILLER_154_15
*7915 FILLER_154_18
*7916 FILLER_154_21
*7917 FILLER_154_24
*7918 FILLER_154_27
*7919 FILLER_154_29
*7920 FILLER_154_3
*7921 FILLER_154_32
*7922 FILLER_154_35
*7923 FILLER_154_38
*7924 FILLER_154_41
*7925 FILLER_154_44
*7926 FILLER_154_47
*7927 FILLER_154_50
*7928 FILLER_154_53
*7929 FILLER_154_56
*7930 FILLER_154_59
*7931 FILLER_154_6
*7932 FILLER_154_62
*7933 FILLER_154_65
*7934 FILLER_154_68
*7935 FILLER_154_71
*7936 FILLER_154_74
*7937 FILLER_154_77
*7938 FILLER_154_80
*7939 FILLER_154_83
*7940 FILLER_154_85
*7941 FILLER_154_88
*7942 FILLER_154_9
*7943 FILLER_154_91
*7944 FILLER_154_94
*7945 FILLER_154_97
*7946 FILLER_155_102
*7947 FILLER_155_105
*7948 FILLER_155_108
*7949 FILLER_155_111
*7950 FILLER_155_113
*7951 FILLER_155_12
*7952 FILLER_155_1208
*7953 FILLER_155_1211
*7954 FILLER_155_1214
*7955 FILLER_155_1217
*7956 FILLER_155_1220
*7957 FILLER_155_1223
*7958 FILLER_155_1226
*7959 FILLER_155_1229
*7960 FILLER_155_1232
*7961 FILLER_155_1235
*7962 FILLER_155_1238
*7963 FILLER_155_1241
*7964 FILLER_155_1244
*7965 FILLER_155_1247
*7966 FILLER_155_1250
*7967 FILLER_155_1253
*7968 FILLER_155_1256
*7969 FILLER_155_1259
*7970 FILLER_155_1262
*7971 FILLER_155_1265
*7972 FILLER_155_1268
*7973 FILLER_155_1271
*7974 FILLER_155_1274
*7975 FILLER_155_1277
*7976 FILLER_155_1280
*7977 FILLER_155_1283
*7978 FILLER_155_1286
*7979 FILLER_155_1289
*7980 FILLER_155_1292
*7981 FILLER_155_1295
*7982 FILLER_155_1298
*7983 FILLER_155_1301
*7984 FILLER_155_1304
*7985 FILLER_155_1307
*7986 FILLER_155_1310
*7987 FILLER_155_1313
*7988 FILLER_155_1316
*7989 FILLER_155_1318
*7990 FILLER_155_1321
*7991 FILLER_155_1324
*7992 FILLER_155_1327
*7993 FILLER_155_1330
*7994 FILLER_155_1333
*7995 FILLER_155_1336
*7996 FILLER_155_1339
*7997 FILLER_155_1342
*7998 FILLER_155_1345
*7999 FILLER_155_1348
*8000 FILLER_155_1351
*8001 FILLER_155_1354
*8002 FILLER_155_1357
*8003 FILLER_155_1360
*8004 FILLER_155_1363
*8005 FILLER_155_15
*8006 FILLER_155_18
*8007 FILLER_155_21
*8008 FILLER_155_24
*8009 FILLER_155_27
*8010 FILLER_155_3
*8011 FILLER_155_30
*8012 FILLER_155_33
*8013 FILLER_155_36
*8014 FILLER_155_39
*8015 FILLER_155_42
*8016 FILLER_155_45
*8017 FILLER_155_48
*8018 FILLER_155_51
*8019 FILLER_155_54
*8020 FILLER_155_57
*8021 FILLER_155_6
*8022 FILLER_155_60
*8023 FILLER_155_63
*8024 FILLER_155_66
*8025 FILLER_155_69
*8026 FILLER_155_72
*8027 FILLER_155_75
*8028 FILLER_155_78
*8029 FILLER_155_81
*8030 FILLER_155_84
*8031 FILLER_155_87
*8032 FILLER_155_9
*8033 FILLER_155_90
*8034 FILLER_155_93
*8035 FILLER_155_96
*8036 FILLER_155_99
*8037 FILLER_156_100
*8038 FILLER_156_103
*8039 FILLER_156_106
*8040 FILLER_156_109
*8041 FILLER_156_112
*8042 FILLER_156_12
*8043 FILLER_156_1208
*8044 FILLER_156_1211
*8045 FILLER_156_1214
*8046 FILLER_156_1217
*8047 FILLER_156_1220
*8048 FILLER_156_1223
*8049 FILLER_156_1226
*8050 FILLER_156_1229
*8051 FILLER_156_1232
*8052 FILLER_156_1234
*8053 FILLER_156_1237
*8054 FILLER_156_1240
*8055 FILLER_156_1243
*8056 FILLER_156_1246
*8057 FILLER_156_1249
*8058 FILLER_156_1252
*8059 FILLER_156_1255
*8060 FILLER_156_1258
*8061 FILLER_156_1261
*8062 FILLER_156_1264
*8063 FILLER_156_1267
*8064 FILLER_156_1270
*8065 FILLER_156_1273
*8066 FILLER_156_1276
*8067 FILLER_156_1279
*8068 FILLER_156_1282
*8069 FILLER_156_1285
*8070 FILLER_156_1288
*8071 FILLER_156_1290
*8072 FILLER_156_1293
*8073 FILLER_156_1296
*8074 FILLER_156_1299
*8075 FILLER_156_1302
*8076 FILLER_156_1305
*8077 FILLER_156_1308
*8078 FILLER_156_1311
*8079 FILLER_156_1314
*8080 FILLER_156_1317
*8081 FILLER_156_1320
*8082 FILLER_156_1323
*8083 FILLER_156_1326
*8084 FILLER_156_1329
*8085 FILLER_156_1332
*8086 FILLER_156_1335
*8087 FILLER_156_1338
*8088 FILLER_156_1341
*8089 FILLER_156_1344
*8090 FILLER_156_1346
*8091 FILLER_156_1349
*8092 FILLER_156_1352
*8093 FILLER_156_1355
*8094 FILLER_156_1358
*8095 FILLER_156_1361
*8096 FILLER_156_15
*8097 FILLER_156_18
*8098 FILLER_156_21
*8099 FILLER_156_24
*8100 FILLER_156_27
*8101 FILLER_156_29
*8102 FILLER_156_3
*8103 FILLER_156_32
*8104 FILLER_156_35
*8105 FILLER_156_38
*8106 FILLER_156_41
*8107 FILLER_156_44
*8108 FILLER_156_47
*8109 FILLER_156_50
*8110 FILLER_156_53
*8111 FILLER_156_56
*8112 FILLER_156_59
*8113 FILLER_156_6
*8114 FILLER_156_62
*8115 FILLER_156_65
*8116 FILLER_156_68
*8117 FILLER_156_71
*8118 FILLER_156_74
*8119 FILLER_156_77
*8120 FILLER_156_80
*8121 FILLER_156_83
*8122 FILLER_156_85
*8123 FILLER_156_88
*8124 FILLER_156_9
*8125 FILLER_156_91
*8126 FILLER_156_94
*8127 FILLER_156_97
*8128 FILLER_157_102
*8129 FILLER_157_105
*8130 FILLER_157_108
*8131 FILLER_157_111
*8132 FILLER_157_113
*8133 FILLER_157_12
*8134 FILLER_157_1208
*8135 FILLER_157_1211
*8136 FILLER_157_1214
*8137 FILLER_157_1217
*8138 FILLER_157_1220
*8139 FILLER_157_1223
*8140 FILLER_157_1226
*8141 FILLER_157_1229
*8142 FILLER_157_1232
*8143 FILLER_157_1235
*8144 FILLER_157_1238
*8145 FILLER_157_1241
*8146 FILLER_157_1244
*8147 FILLER_157_1247
*8148 FILLER_157_1250
*8149 FILLER_157_1253
*8150 FILLER_157_1256
*8151 FILLER_157_1259
*8152 FILLER_157_1262
*8153 FILLER_157_1265
*8154 FILLER_157_1268
*8155 FILLER_157_1271
*8156 FILLER_157_1274
*8157 FILLER_157_1277
*8158 FILLER_157_1280
*8159 FILLER_157_1283
*8160 FILLER_157_1286
*8161 FILLER_157_1289
*8162 FILLER_157_1292
*8163 FILLER_157_1295
*8164 FILLER_157_1298
*8165 FILLER_157_1301
*8166 FILLER_157_1304
*8167 FILLER_157_1307
*8168 FILLER_157_1310
*8169 FILLER_157_1313
*8170 FILLER_157_1316
*8171 FILLER_157_1318
*8172 FILLER_157_1321
*8173 FILLER_157_1324
*8174 FILLER_157_1327
*8175 FILLER_157_1330
*8176 FILLER_157_1333
*8177 FILLER_157_1336
*8178 FILLER_157_1339
*8179 FILLER_157_1342
*8180 FILLER_157_1345
*8181 FILLER_157_1348
*8182 FILLER_157_1351
*8183 FILLER_157_1354
*8184 FILLER_157_1357
*8185 FILLER_157_1360
*8186 FILLER_157_1363
*8187 FILLER_157_15
*8188 FILLER_157_18
*8189 FILLER_157_21
*8190 FILLER_157_24
*8191 FILLER_157_27
*8192 FILLER_157_3
*8193 FILLER_157_30
*8194 FILLER_157_33
*8195 FILLER_157_36
*8196 FILLER_157_39
*8197 FILLER_157_42
*8198 FILLER_157_45
*8199 FILLER_157_48
*8200 FILLER_157_51
*8201 FILLER_157_54
*8202 FILLER_157_57
*8203 FILLER_157_6
*8204 FILLER_157_60
*8205 FILLER_157_63
*8206 FILLER_157_66
*8207 FILLER_157_69
*8208 FILLER_157_72
*8209 FILLER_157_75
*8210 FILLER_157_78
*8211 FILLER_157_81
*8212 FILLER_157_84
*8213 FILLER_157_87
*8214 FILLER_157_9
*8215 FILLER_157_90
*8216 FILLER_157_93
*8217 FILLER_157_96
*8218 FILLER_157_99
*8219 FILLER_158_100
*8220 FILLER_158_103
*8221 FILLER_158_106
*8222 FILLER_158_109
*8223 FILLER_158_112
*8224 FILLER_158_12
*8225 FILLER_158_1208
*8226 FILLER_158_1211
*8227 FILLER_158_1214
*8228 FILLER_158_1217
*8229 FILLER_158_1220
*8230 FILLER_158_1223
*8231 FILLER_158_1226
*8232 FILLER_158_1229
*8233 FILLER_158_1232
*8234 FILLER_158_1234
*8235 FILLER_158_1237
*8236 FILLER_158_1240
*8237 FILLER_158_1243
*8238 FILLER_158_1246
*8239 FILLER_158_1249
*8240 FILLER_158_1252
*8241 FILLER_158_1255
*8242 FILLER_158_1258
*8243 FILLER_158_1261
*8244 FILLER_158_1264
*8245 FILLER_158_1267
*8246 FILLER_158_1270
*8247 FILLER_158_1273
*8248 FILLER_158_1276
*8249 FILLER_158_1279
*8250 FILLER_158_1282
*8251 FILLER_158_1285
*8252 FILLER_158_1288
*8253 FILLER_158_1290
*8254 FILLER_158_1293
*8255 FILLER_158_1296
*8256 FILLER_158_1299
*8257 FILLER_158_1302
*8258 FILLER_158_1305
*8259 FILLER_158_1308
*8260 FILLER_158_1311
*8261 FILLER_158_1314
*8262 FILLER_158_1317
*8263 FILLER_158_1320
*8264 FILLER_158_1323
*8265 FILLER_158_1326
*8266 FILLER_158_1329
*8267 FILLER_158_1332
*8268 FILLER_158_1335
*8269 FILLER_158_1338
*8270 FILLER_158_1341
*8271 FILLER_158_1344
*8272 FILLER_158_1346
*8273 FILLER_158_1349
*8274 FILLER_158_1352
*8275 FILLER_158_1355
*8276 FILLER_158_1358
*8277 FILLER_158_1361
*8278 FILLER_158_15
*8279 FILLER_158_18
*8280 FILLER_158_21
*8281 FILLER_158_24
*8282 FILLER_158_27
*8283 FILLER_158_29
*8284 FILLER_158_3
*8285 FILLER_158_32
*8286 FILLER_158_35
*8287 FILLER_158_38
*8288 FILLER_158_41
*8289 FILLER_158_44
*8290 FILLER_158_47
*8291 FILLER_158_50
*8292 FILLER_158_53
*8293 FILLER_158_56
*8294 FILLER_158_59
*8295 FILLER_158_6
*8296 FILLER_158_62
*8297 FILLER_158_65
*8298 FILLER_158_68
*8299 FILLER_158_71
*8300 FILLER_158_74
*8301 FILLER_158_77
*8302 FILLER_158_80
*8303 FILLER_158_83
*8304 FILLER_158_85
*8305 FILLER_158_88
*8306 FILLER_158_9
*8307 FILLER_158_91
*8308 FILLER_158_94
*8309 FILLER_158_97
*8310 FILLER_159_102
*8311 FILLER_159_105
*8312 FILLER_159_108
*8313 FILLER_159_111
*8314 FILLER_159_113
*8315 FILLER_159_12
*8316 FILLER_159_1208
*8317 FILLER_159_1211
*8318 FILLER_159_1214
*8319 FILLER_159_1217
*8320 FILLER_159_1220
*8321 FILLER_159_1223
*8322 FILLER_159_1226
*8323 FILLER_159_1229
*8324 FILLER_159_1232
*8325 FILLER_159_1235
*8326 FILLER_159_1238
*8327 FILLER_159_1241
*8328 FILLER_159_1244
*8329 FILLER_159_1247
*8330 FILLER_159_1250
*8331 FILLER_159_1253
*8332 FILLER_159_1256
*8333 FILLER_159_1259
*8334 FILLER_159_1262
*8335 FILLER_159_1265
*8336 FILLER_159_1268
*8337 FILLER_159_1271
*8338 FILLER_159_1274
*8339 FILLER_159_1277
*8340 FILLER_159_1280
*8341 FILLER_159_1283
*8342 FILLER_159_1286
*8343 FILLER_159_1289
*8344 FILLER_159_1292
*8345 FILLER_159_1295
*8346 FILLER_159_1298
*8347 FILLER_159_1301
*8348 FILLER_159_1304
*8349 FILLER_159_1307
*8350 FILLER_159_1310
*8351 FILLER_159_1313
*8352 FILLER_159_1316
*8353 FILLER_159_1318
*8354 FILLER_159_1321
*8355 FILLER_159_1324
*8356 FILLER_159_1327
*8357 FILLER_159_1330
*8358 FILLER_159_1333
*8359 FILLER_159_1336
*8360 FILLER_159_1339
*8361 FILLER_159_1342
*8362 FILLER_159_1345
*8363 FILLER_159_1348
*8364 FILLER_159_1351
*8365 FILLER_159_1354
*8366 FILLER_159_1357
*8367 FILLER_159_1360
*8368 FILLER_159_1363
*8369 FILLER_159_15
*8370 FILLER_159_18
*8371 FILLER_159_21
*8372 FILLER_159_24
*8373 FILLER_159_27
*8374 FILLER_159_3
*8375 FILLER_159_30
*8376 FILLER_159_33
*8377 FILLER_159_36
*8378 FILLER_159_39
*8379 FILLER_159_42
*8380 FILLER_159_45
*8381 FILLER_159_48
*8382 FILLER_159_51
*8383 FILLER_159_54
*8384 FILLER_159_57
*8385 FILLER_159_6
*8386 FILLER_159_60
*8387 FILLER_159_63
*8388 FILLER_159_66
*8389 FILLER_159_69
*8390 FILLER_159_72
*8391 FILLER_159_75
*8392 FILLER_159_78
*8393 FILLER_159_81
*8394 FILLER_159_84
*8395 FILLER_159_87
*8396 FILLER_159_9
*8397 FILLER_159_90
*8398 FILLER_159_93
*8399 FILLER_159_96
*8400 FILLER_159_99
*8401 FILLER_15_1001
*8402 FILLER_15_1004
*8403 FILLER_15_1007
*8404 FILLER_15_1009
*8405 FILLER_15_1012
*8406 FILLER_15_1015
*8407 FILLER_15_1018
*8408 FILLER_15_102
*8409 FILLER_15_1021
*8410 FILLER_15_1024
*8411 FILLER_15_1027
*8412 FILLER_15_1030
*8413 FILLER_15_1033
*8414 FILLER_15_1036
*8415 FILLER_15_1039
*8416 FILLER_15_1042
*8417 FILLER_15_1045
*8418 FILLER_15_1048
*8419 FILLER_15_105
*8420 FILLER_15_1051
*8421 FILLER_15_1054
*8422 FILLER_15_1057
*8423 FILLER_15_1060
*8424 FILLER_15_1063
*8425 FILLER_15_1065
*8426 FILLER_15_1068
*8427 FILLER_15_1071
*8428 FILLER_15_1074
*8429 FILLER_15_1077
*8430 FILLER_15_108
*8431 FILLER_15_1080
*8432 FILLER_15_1083
*8433 FILLER_15_1086
*8434 FILLER_15_1089
*8435 FILLER_15_1092
*8436 FILLER_15_1095
*8437 FILLER_15_1098
*8438 FILLER_15_1101
*8439 FILLER_15_1104
*8440 FILLER_15_1107
*8441 FILLER_15_111
*8442 FILLER_15_1110
*8443 FILLER_15_1113
*8444 FILLER_15_1116
*8445 FILLER_15_1119
*8446 FILLER_15_1121
*8447 FILLER_15_1124
*8448 FILLER_15_1127
*8449 FILLER_15_113
*8450 FILLER_15_1130
*8451 FILLER_15_1133
*8452 FILLER_15_1136
*8453 FILLER_15_1139
*8454 FILLER_15_1142
*8455 FILLER_15_1145
*8456 FILLER_15_1148
*8457 FILLER_15_1151
*8458 FILLER_15_1154
*8459 FILLER_15_1157
*8460 FILLER_15_116
*8461 FILLER_15_1160
*8462 FILLER_15_1163
*8463 FILLER_15_1166
*8464 FILLER_15_1169
*8465 FILLER_15_1172
*8466 FILLER_15_1175
*8467 FILLER_15_1177
*8468 FILLER_15_1180
*8469 FILLER_15_1183
*8470 FILLER_15_1186
*8471 FILLER_15_1189
*8472 FILLER_15_119
*8473 FILLER_15_1192
*8474 FILLER_15_1195
*8475 FILLER_15_1198
*8476 FILLER_15_12
*8477 FILLER_15_1201
*8478 FILLER_15_1204
*8479 FILLER_15_1207
*8480 FILLER_15_1210
*8481 FILLER_15_1213
*8482 FILLER_15_1216
*8483 FILLER_15_1219
*8484 FILLER_15_122
*8485 FILLER_15_1222
*8486 FILLER_15_1225
*8487 FILLER_15_1228
*8488 FILLER_15_1231
*8489 FILLER_15_1233
*8490 FILLER_15_1236
*8491 FILLER_15_1239
*8492 FILLER_15_1242
*8493 FILLER_15_1245
*8494 FILLER_15_1248
*8495 FILLER_15_125
*8496 FILLER_15_1251
*8497 FILLER_15_1254
*8498 FILLER_15_1257
*8499 FILLER_15_1260
*8500 FILLER_15_1263
*8501 FILLER_15_1266
*8502 FILLER_15_1269
*8503 FILLER_15_1272
*8504 FILLER_15_1275
*8505 FILLER_15_1278
*8506 FILLER_15_128
*8507 FILLER_15_1281
*8508 FILLER_15_1284
*8509 FILLER_15_1287
*8510 FILLER_15_1289
*8511 FILLER_15_1292
*8512 FILLER_15_1295
*8513 FILLER_15_1298
*8514 FILLER_15_1301
*8515 FILLER_15_1304
*8516 FILLER_15_1307
*8517 FILLER_15_131
*8518 FILLER_15_1310
*8519 FILLER_15_1313
*8520 FILLER_15_1316
*8521 FILLER_15_1319
*8522 FILLER_15_1322
*8523 FILLER_15_1325
*8524 FILLER_15_1328
*8525 FILLER_15_1331
*8526 FILLER_15_1334
*8527 FILLER_15_1337
*8528 FILLER_15_134
*8529 FILLER_15_1340
*8530 FILLER_15_1343
*8531 FILLER_15_1345
*8532 FILLER_15_1348
*8533 FILLER_15_1351
*8534 FILLER_15_1354
*8535 FILLER_15_1357
*8536 FILLER_15_1360
*8537 FILLER_15_1363
*8538 FILLER_15_137
*8539 FILLER_15_140
*8540 FILLER_15_143
*8541 FILLER_15_146
*8542 FILLER_15_149
*8543 FILLER_15_15
*8544 FILLER_15_152
*8545 FILLER_15_155
*8546 FILLER_15_158
*8547 FILLER_15_161
*8548 FILLER_15_164
*8549 FILLER_15_167
*8550 FILLER_15_169
*8551 FILLER_15_172
*8552 FILLER_15_175
*8553 FILLER_15_178
*8554 FILLER_15_18
*8555 FILLER_15_181
*8556 FILLER_15_184
*8557 FILLER_15_187
*8558 FILLER_15_190
*8559 FILLER_15_193
*8560 FILLER_15_196
*8561 FILLER_15_199
*8562 FILLER_15_202
*8563 FILLER_15_205
*8564 FILLER_15_208
*8565 FILLER_15_21
*8566 FILLER_15_211
*8567 FILLER_15_214
*8568 FILLER_15_217
*8569 FILLER_15_220
*8570 FILLER_15_223
*8571 FILLER_15_225
*8572 FILLER_15_228
*8573 FILLER_15_231
*8574 FILLER_15_234
*8575 FILLER_15_237
*8576 FILLER_15_24
*8577 FILLER_15_240
*8578 FILLER_15_243
*8579 FILLER_15_246
*8580 FILLER_15_249
*8581 FILLER_15_252
*8582 FILLER_15_255
*8583 FILLER_15_258
*8584 FILLER_15_261
*8585 FILLER_15_264
*8586 FILLER_15_267
*8587 FILLER_15_27
*8588 FILLER_15_270
*8589 FILLER_15_273
*8590 FILLER_15_276
*8591 FILLER_15_279
*8592 FILLER_15_281
*8593 FILLER_15_284
*8594 FILLER_15_287
*8595 FILLER_15_290
*8596 FILLER_15_293
*8597 FILLER_15_296
*8598 FILLER_15_299
*8599 FILLER_15_3
*8600 FILLER_15_30
*8601 FILLER_15_302
*8602 FILLER_15_305
*8603 FILLER_15_308
*8604 FILLER_15_311
*8605 FILLER_15_314
*8606 FILLER_15_317
*8607 FILLER_15_320
*8608 FILLER_15_323
*8609 FILLER_15_326
*8610 FILLER_15_329
*8611 FILLER_15_33
*8612 FILLER_15_332
*8613 FILLER_15_335
*8614 FILLER_15_337
*8615 FILLER_15_340
*8616 FILLER_15_343
*8617 FILLER_15_346
*8618 FILLER_15_349
*8619 FILLER_15_352
*8620 FILLER_15_355
*8621 FILLER_15_358
*8622 FILLER_15_36
*8623 FILLER_15_361
*8624 FILLER_15_364
*8625 FILLER_15_367
*8626 FILLER_15_370
*8627 FILLER_15_373
*8628 FILLER_15_376
*8629 FILLER_15_379
*8630 FILLER_15_382
*8631 FILLER_15_385
*8632 FILLER_15_388
*8633 FILLER_15_39
*8634 FILLER_15_391
*8635 FILLER_15_393
*8636 FILLER_15_396
*8637 FILLER_15_399
*8638 FILLER_15_402
*8639 FILLER_15_405
*8640 FILLER_15_408
*8641 FILLER_15_411
*8642 FILLER_15_414
*8643 FILLER_15_417
*8644 FILLER_15_42
*8645 FILLER_15_420
*8646 FILLER_15_423
*8647 FILLER_15_426
*8648 FILLER_15_429
*8649 FILLER_15_432
*8650 FILLER_15_435
*8651 FILLER_15_438
*8652 FILLER_15_441
*8653 FILLER_15_444
*8654 FILLER_15_447
*8655 FILLER_15_449
*8656 FILLER_15_45
*8657 FILLER_15_452
*8658 FILLER_15_455
*8659 FILLER_15_458
*8660 FILLER_15_461
*8661 FILLER_15_464
*8662 FILLER_15_467
*8663 FILLER_15_470
*8664 FILLER_15_473
*8665 FILLER_15_476
*8666 FILLER_15_479
*8667 FILLER_15_48
*8668 FILLER_15_482
*8669 FILLER_15_485
*8670 FILLER_15_488
*8671 FILLER_15_491
*8672 FILLER_15_494
*8673 FILLER_15_497
*8674 FILLER_15_500
*8675 FILLER_15_503
*8676 FILLER_15_505
*8677 FILLER_15_508
*8678 FILLER_15_51
*8679 FILLER_15_511
*8680 FILLER_15_514
*8681 FILLER_15_517
*8682 FILLER_15_520
*8683 FILLER_15_523
*8684 FILLER_15_526
*8685 FILLER_15_529
*8686 FILLER_15_532
*8687 FILLER_15_535
*8688 FILLER_15_538
*8689 FILLER_15_54
*8690 FILLER_15_541
*8691 FILLER_15_544
*8692 FILLER_15_547
*8693 FILLER_15_550
*8694 FILLER_15_553
*8695 FILLER_15_556
*8696 FILLER_15_559
*8697 FILLER_15_561
*8698 FILLER_15_564
*8699 FILLER_15_567
*8700 FILLER_15_57
*8701 FILLER_15_570
*8702 FILLER_15_573
*8703 FILLER_15_576
*8704 FILLER_15_579
*8705 FILLER_15_582
*8706 FILLER_15_585
*8707 FILLER_15_588
*8708 FILLER_15_591
*8709 FILLER_15_594
*8710 FILLER_15_597
*8711 FILLER_15_6
*8712 FILLER_15_60
*8713 FILLER_15_600
*8714 FILLER_15_603
*8715 FILLER_15_606
*8716 FILLER_15_609
*8717 FILLER_15_612
*8718 FILLER_15_615
*8719 FILLER_15_617
*8720 FILLER_15_620
*8721 FILLER_15_623
*8722 FILLER_15_626
*8723 FILLER_15_629
*8724 FILLER_15_63
*8725 FILLER_15_632
*8726 FILLER_15_635
*8727 FILLER_15_638
*8728 FILLER_15_641
*8729 FILLER_15_644
*8730 FILLER_15_647
*8731 FILLER_15_650
*8732 FILLER_15_653
*8733 FILLER_15_656
*8734 FILLER_15_659
*8735 FILLER_15_66
*8736 FILLER_15_662
*8737 FILLER_15_665
*8738 FILLER_15_668
*8739 FILLER_15_671
*8740 FILLER_15_673
*8741 FILLER_15_676
*8742 FILLER_15_679
*8743 FILLER_15_682
*8744 FILLER_15_685
*8745 FILLER_15_688
*8746 FILLER_15_69
*8747 FILLER_15_691
*8748 FILLER_15_694
*8749 FILLER_15_697
*8750 FILLER_15_700
*8751 FILLER_15_703
*8752 FILLER_15_706
*8753 FILLER_15_709
*8754 FILLER_15_712
*8755 FILLER_15_715
*8756 FILLER_15_718
*8757 FILLER_15_72
*8758 FILLER_15_721
*8759 FILLER_15_724
*8760 FILLER_15_727
*8761 FILLER_15_729
*8762 FILLER_15_732
*8763 FILLER_15_735
*8764 FILLER_15_738
*8765 FILLER_15_741
*8766 FILLER_15_744
*8767 FILLER_15_747
*8768 FILLER_15_75
*8769 FILLER_15_750
*8770 FILLER_15_753
*8771 FILLER_15_756
*8772 FILLER_15_759
*8773 FILLER_15_762
*8774 FILLER_15_765
*8775 FILLER_15_768
*8776 FILLER_15_771
*8777 FILLER_15_774
*8778 FILLER_15_777
*8779 FILLER_15_78
*8780 FILLER_15_780
*8781 FILLER_15_783
*8782 FILLER_15_785
*8783 FILLER_15_788
*8784 FILLER_15_791
*8785 FILLER_15_794
*8786 FILLER_15_797
*8787 FILLER_15_800
*8788 FILLER_15_803
*8789 FILLER_15_806
*8790 FILLER_15_809
*8791 FILLER_15_81
*8792 FILLER_15_812
*8793 FILLER_15_815
*8794 FILLER_15_818
*8795 FILLER_15_821
*8796 FILLER_15_824
*8797 FILLER_15_827
*8798 FILLER_15_830
*8799 FILLER_15_833
*8800 FILLER_15_836
*8801 FILLER_15_839
*8802 FILLER_15_84
*8803 FILLER_15_841
*8804 FILLER_15_844
*8805 FILLER_15_847
*8806 FILLER_15_850
*8807 FILLER_15_853
*8808 FILLER_15_856
*8809 FILLER_15_859
*8810 FILLER_15_862
*8811 FILLER_15_865
*8812 FILLER_15_868
*8813 FILLER_15_87
*8814 FILLER_15_871
*8815 FILLER_15_874
*8816 FILLER_15_877
*8817 FILLER_15_880
*8818 FILLER_15_883
*8819 FILLER_15_886
*8820 FILLER_15_889
*8821 FILLER_15_892
*8822 FILLER_15_895
*8823 FILLER_15_897
*8824 FILLER_15_9
*8825 FILLER_15_90
*8826 FILLER_15_900
*8827 FILLER_15_903
*8828 FILLER_15_906
*8829 FILLER_15_909
*8830 FILLER_15_912
*8831 FILLER_15_915
*8832 FILLER_15_918
*8833 FILLER_15_921
*8834 FILLER_15_924
*8835 FILLER_15_927
*8836 FILLER_15_93
*8837 FILLER_15_930
*8838 FILLER_15_933
*8839 FILLER_15_936
*8840 FILLER_15_939
*8841 FILLER_15_942
*8842 FILLER_15_945
*8843 FILLER_15_948
*8844 FILLER_15_951
*8845 FILLER_15_953
*8846 FILLER_15_956
*8847 FILLER_15_959
*8848 FILLER_15_96
*8849 FILLER_15_962
*8850 FILLER_15_965
*8851 FILLER_15_968
*8852 FILLER_15_971
*8853 FILLER_15_974
*8854 FILLER_15_977
*8855 FILLER_15_980
*8856 FILLER_15_983
*8857 FILLER_15_986
*8858 FILLER_15_989
*8859 FILLER_15_99
*8860 FILLER_15_992
*8861 FILLER_15_995
*8862 FILLER_15_998
*8863 FILLER_160_100
*8864 FILLER_160_103
*8865 FILLER_160_106
*8866 FILLER_160_109
*8867 FILLER_160_112
*8868 FILLER_160_12
*8869 FILLER_160_1208
*8870 FILLER_160_1211
*8871 FILLER_160_1214
*8872 FILLER_160_1217
*8873 FILLER_160_1220
*8874 FILLER_160_1223
*8875 FILLER_160_1226
*8876 FILLER_160_1229
*8877 FILLER_160_1232
*8878 FILLER_160_1234
*8879 FILLER_160_1237
*8880 FILLER_160_1240
*8881 FILLER_160_1243
*8882 FILLER_160_1246
*8883 FILLER_160_1249
*8884 FILLER_160_1252
*8885 FILLER_160_1255
*8886 FILLER_160_1258
*8887 FILLER_160_1261
*8888 FILLER_160_1264
*8889 FILLER_160_1267
*8890 FILLER_160_1270
*8891 FILLER_160_1273
*8892 FILLER_160_1276
*8893 FILLER_160_1279
*8894 FILLER_160_1282
*8895 FILLER_160_1285
*8896 FILLER_160_1288
*8897 FILLER_160_1290
*8898 FILLER_160_1293
*8899 FILLER_160_1296
*8900 FILLER_160_1299
*8901 FILLER_160_1302
*8902 FILLER_160_1305
*8903 FILLER_160_1308
*8904 FILLER_160_1311
*8905 FILLER_160_1314
*8906 FILLER_160_1317
*8907 FILLER_160_1320
*8908 FILLER_160_1323
*8909 FILLER_160_1326
*8910 FILLER_160_1329
*8911 FILLER_160_1332
*8912 FILLER_160_1335
*8913 FILLER_160_1338
*8914 FILLER_160_1341
*8915 FILLER_160_1344
*8916 FILLER_160_1346
*8917 FILLER_160_1349
*8918 FILLER_160_1352
*8919 FILLER_160_1355
*8920 FILLER_160_1358
*8921 FILLER_160_1361
*8922 FILLER_160_15
*8923 FILLER_160_18
*8924 FILLER_160_21
*8925 FILLER_160_24
*8926 FILLER_160_27
*8927 FILLER_160_29
*8928 FILLER_160_3
*8929 FILLER_160_32
*8930 FILLER_160_35
*8931 FILLER_160_38
*8932 FILLER_160_41
*8933 FILLER_160_44
*8934 FILLER_160_47
*8935 FILLER_160_50
*8936 FILLER_160_53
*8937 FILLER_160_56
*8938 FILLER_160_59
*8939 FILLER_160_6
*8940 FILLER_160_62
*8941 FILLER_160_65
*8942 FILLER_160_68
*8943 FILLER_160_71
*8944 FILLER_160_74
*8945 FILLER_160_77
*8946 FILLER_160_80
*8947 FILLER_160_83
*8948 FILLER_160_85
*8949 FILLER_160_88
*8950 FILLER_160_9
*8951 FILLER_160_91
*8952 FILLER_160_94
*8953 FILLER_160_97
*8954 FILLER_161_102
*8955 FILLER_161_105
*8956 FILLER_161_108
*8957 FILLER_161_111
*8958 FILLER_161_113
*8959 FILLER_161_12
*8960 FILLER_161_1208
*8961 FILLER_161_1211
*8962 FILLER_161_1214
*8963 FILLER_161_1217
*8964 FILLER_161_1220
*8965 FILLER_161_1223
*8966 FILLER_161_1226
*8967 FILLER_161_1229
*8968 FILLER_161_1232
*8969 FILLER_161_1235
*8970 FILLER_161_1238
*8971 FILLER_161_1241
*8972 FILLER_161_1244
*8973 FILLER_161_1247
*8974 FILLER_161_1250
*8975 FILLER_161_1253
*8976 FILLER_161_1256
*8977 FILLER_161_1259
*8978 FILLER_161_1262
*8979 FILLER_161_1265
*8980 FILLER_161_1268
*8981 FILLER_161_1271
*8982 FILLER_161_1274
*8983 FILLER_161_1277
*8984 FILLER_161_1280
*8985 FILLER_161_1283
*8986 FILLER_161_1286
*8987 FILLER_161_1289
*8988 FILLER_161_1292
*8989 FILLER_161_1295
*8990 FILLER_161_1298
*8991 FILLER_161_1301
*8992 FILLER_161_1304
*8993 FILLER_161_1307
*8994 FILLER_161_1310
*8995 FILLER_161_1313
*8996 FILLER_161_1316
*8997 FILLER_161_1318
*8998 FILLER_161_1321
*8999 FILLER_161_1324
*9000 FILLER_161_1327
*9001 FILLER_161_1330
*9002 FILLER_161_1333
*9003 FILLER_161_1336
*9004 FILLER_161_1339
*9005 FILLER_161_1342
*9006 FILLER_161_1345
*9007 FILLER_161_1348
*9008 FILLER_161_1351
*9009 FILLER_161_1354
*9010 FILLER_161_1357
*9011 FILLER_161_1360
*9012 FILLER_161_1363
*9013 FILLER_161_15
*9014 FILLER_161_18
*9015 FILLER_161_21
*9016 FILLER_161_24
*9017 FILLER_161_27
*9018 FILLER_161_3
*9019 FILLER_161_30
*9020 FILLER_161_33
*9021 FILLER_161_36
*9022 FILLER_161_39
*9023 FILLER_161_42
*9024 FILLER_161_45
*9025 FILLER_161_48
*9026 FILLER_161_51
*9027 FILLER_161_54
*9028 FILLER_161_57
*9029 FILLER_161_6
*9030 FILLER_161_60
*9031 FILLER_161_63
*9032 FILLER_161_66
*9033 FILLER_161_69
*9034 FILLER_161_72
*9035 FILLER_161_75
*9036 FILLER_161_78
*9037 FILLER_161_81
*9038 FILLER_161_84
*9039 FILLER_161_87
*9040 FILLER_161_9
*9041 FILLER_161_90
*9042 FILLER_161_93
*9043 FILLER_161_96
*9044 FILLER_161_99
*9045 FILLER_162_100
*9046 FILLER_162_103
*9047 FILLER_162_106
*9048 FILLER_162_109
*9049 FILLER_162_112
*9050 FILLER_162_12
*9051 FILLER_162_1211
*9052 FILLER_162_1214
*9053 FILLER_162_1217
*9054 FILLER_162_1220
*9055 FILLER_162_1223
*9056 FILLER_162_1226
*9057 FILLER_162_1229
*9058 FILLER_162_1232
*9059 FILLER_162_1234
*9060 FILLER_162_1237
*9061 FILLER_162_1240
*9062 FILLER_162_1243
*9063 FILLER_162_1246
*9064 FILLER_162_1249
*9065 FILLER_162_1252
*9066 FILLER_162_1255
*9067 FILLER_162_1258
*9068 FILLER_162_1261
*9069 FILLER_162_1264
*9070 FILLER_162_1267
*9071 FILLER_162_1270
*9072 FILLER_162_1273
*9073 FILLER_162_1276
*9074 FILLER_162_1279
*9075 FILLER_162_1282
*9076 FILLER_162_1285
*9077 FILLER_162_1288
*9078 FILLER_162_1290
*9079 FILLER_162_1293
*9080 FILLER_162_1296
*9081 FILLER_162_1299
*9082 FILLER_162_1302
*9083 FILLER_162_1305
*9084 FILLER_162_1308
*9085 FILLER_162_1311
*9086 FILLER_162_1314
*9087 FILLER_162_1317
*9088 FILLER_162_1320
*9089 FILLER_162_1323
*9090 FILLER_162_1326
*9091 FILLER_162_1329
*9092 FILLER_162_1332
*9093 FILLER_162_1335
*9094 FILLER_162_1338
*9095 FILLER_162_1341
*9096 FILLER_162_1344
*9097 FILLER_162_1346
*9098 FILLER_162_1349
*9099 FILLER_162_1352
*9100 FILLER_162_1355
*9101 FILLER_162_1358
*9102 FILLER_162_1361
*9103 FILLER_162_15
*9104 FILLER_162_18
*9105 FILLER_162_21
*9106 FILLER_162_24
*9107 FILLER_162_27
*9108 FILLER_162_29
*9109 FILLER_162_3
*9110 FILLER_162_32
*9111 FILLER_162_35
*9112 FILLER_162_38
*9113 FILLER_162_41
*9114 FILLER_162_44
*9115 FILLER_162_47
*9116 FILLER_162_50
*9117 FILLER_162_53
*9118 FILLER_162_56
*9119 FILLER_162_59
*9120 FILLER_162_6
*9121 FILLER_162_62
*9122 FILLER_162_65
*9123 FILLER_162_68
*9124 FILLER_162_71
*9125 FILLER_162_74
*9126 FILLER_162_77
*9127 FILLER_162_80
*9128 FILLER_162_83
*9129 FILLER_162_85
*9130 FILLER_162_88
*9131 FILLER_162_9
*9132 FILLER_162_91
*9133 FILLER_162_94
*9134 FILLER_162_97
*9135 FILLER_163_102
*9136 FILLER_163_105
*9137 FILLER_163_108
*9138 FILLER_163_111
*9139 FILLER_163_113
*9140 FILLER_163_12
*9141 FILLER_163_1208
*9142 FILLER_163_1211
*9143 FILLER_163_1214
*9144 FILLER_163_1217
*9145 FILLER_163_1220
*9146 FILLER_163_1223
*9147 FILLER_163_1226
*9148 FILLER_163_1229
*9149 FILLER_163_1232
*9150 FILLER_163_1235
*9151 FILLER_163_1238
*9152 FILLER_163_1241
*9153 FILLER_163_1244
*9154 FILLER_163_1247
*9155 FILLER_163_1250
*9156 FILLER_163_1253
*9157 FILLER_163_1256
*9158 FILLER_163_1259
*9159 FILLER_163_1262
*9160 FILLER_163_1265
*9161 FILLER_163_1268
*9162 FILLER_163_1271
*9163 FILLER_163_1274
*9164 FILLER_163_1277
*9165 FILLER_163_1280
*9166 FILLER_163_1283
*9167 FILLER_163_1286
*9168 FILLER_163_1289
*9169 FILLER_163_1292
*9170 FILLER_163_1295
*9171 FILLER_163_1298
*9172 FILLER_163_1301
*9173 FILLER_163_1304
*9174 FILLER_163_1307
*9175 FILLER_163_1310
*9176 FILLER_163_1313
*9177 FILLER_163_1316
*9178 FILLER_163_1318
*9179 FILLER_163_1321
*9180 FILLER_163_1324
*9181 FILLER_163_1327
*9182 FILLER_163_1330
*9183 FILLER_163_1333
*9184 FILLER_163_1336
*9185 FILLER_163_1339
*9186 FILLER_163_1342
*9187 FILLER_163_1345
*9188 FILLER_163_1348
*9189 FILLER_163_1351
*9190 FILLER_163_1354
*9191 FILLER_163_1357
*9192 FILLER_163_1360
*9193 FILLER_163_1363
*9194 FILLER_163_15
*9195 FILLER_163_18
*9196 FILLER_163_21
*9197 FILLER_163_24
*9198 FILLER_163_27
*9199 FILLER_163_3
*9200 FILLER_163_30
*9201 FILLER_163_33
*9202 FILLER_163_36
*9203 FILLER_163_39
*9204 FILLER_163_42
*9205 FILLER_163_45
*9206 FILLER_163_48
*9207 FILLER_163_51
*9208 FILLER_163_54
*9209 FILLER_163_57
*9210 FILLER_163_6
*9211 FILLER_163_60
*9212 FILLER_163_63
*9213 FILLER_163_66
*9214 FILLER_163_69
*9215 FILLER_163_72
*9216 FILLER_163_75
*9217 FILLER_163_78
*9218 FILLER_163_81
*9219 FILLER_163_84
*9220 FILLER_163_87
*9221 FILLER_163_9
*9222 FILLER_163_90
*9223 FILLER_163_93
*9224 FILLER_163_96
*9225 FILLER_163_99
*9226 FILLER_164_100
*9227 FILLER_164_103
*9228 FILLER_164_106
*9229 FILLER_164_109
*9230 FILLER_164_112
*9231 FILLER_164_12
*9232 FILLER_164_1208
*9233 FILLER_164_1211
*9234 FILLER_164_1214
*9235 FILLER_164_1217
*9236 FILLER_164_1220
*9237 FILLER_164_1223
*9238 FILLER_164_1226
*9239 FILLER_164_1229
*9240 FILLER_164_1232
*9241 FILLER_164_1234
*9242 FILLER_164_1237
*9243 FILLER_164_1240
*9244 FILLER_164_1243
*9245 FILLER_164_1246
*9246 FILLER_164_1249
*9247 FILLER_164_1252
*9248 FILLER_164_1255
*9249 FILLER_164_1258
*9250 FILLER_164_1261
*9251 FILLER_164_1264
*9252 FILLER_164_1267
*9253 FILLER_164_1270
*9254 FILLER_164_1273
*9255 FILLER_164_1276
*9256 FILLER_164_1279
*9257 FILLER_164_1282
*9258 FILLER_164_1285
*9259 FILLER_164_1288
*9260 FILLER_164_1290
*9261 FILLER_164_1293
*9262 FILLER_164_1296
*9263 FILLER_164_1299
*9264 FILLER_164_1302
*9265 FILLER_164_1305
*9266 FILLER_164_1308
*9267 FILLER_164_1311
*9268 FILLER_164_1314
*9269 FILLER_164_1317
*9270 FILLER_164_1320
*9271 FILLER_164_1323
*9272 FILLER_164_1326
*9273 FILLER_164_1329
*9274 FILLER_164_1332
*9275 FILLER_164_1335
*9276 FILLER_164_1338
*9277 FILLER_164_1341
*9278 FILLER_164_1344
*9279 FILLER_164_1346
*9280 FILLER_164_1349
*9281 FILLER_164_1352
*9282 FILLER_164_1355
*9283 FILLER_164_1358
*9284 FILLER_164_1361
*9285 FILLER_164_15
*9286 FILLER_164_18
*9287 FILLER_164_21
*9288 FILLER_164_24
*9289 FILLER_164_27
*9290 FILLER_164_29
*9291 FILLER_164_3
*9292 FILLER_164_32
*9293 FILLER_164_35
*9294 FILLER_164_38
*9295 FILLER_164_41
*9296 FILLER_164_44
*9297 FILLER_164_47
*9298 FILLER_164_50
*9299 FILLER_164_53
*9300 FILLER_164_56
*9301 FILLER_164_59
*9302 FILLER_164_6
*9303 FILLER_164_62
*9304 FILLER_164_65
*9305 FILLER_164_68
*9306 FILLER_164_71
*9307 FILLER_164_74
*9308 FILLER_164_77
*9309 FILLER_164_80
*9310 FILLER_164_83
*9311 FILLER_164_85
*9312 FILLER_164_88
*9313 FILLER_164_9
*9314 FILLER_164_91
*9315 FILLER_164_94
*9316 FILLER_164_97
*9317 FILLER_165_102
*9318 FILLER_165_105
*9319 FILLER_165_108
*9320 FILLER_165_111
*9321 FILLER_165_113
*9322 FILLER_165_12
*9323 FILLER_165_1208
*9324 FILLER_165_1211
*9325 FILLER_165_1214
*9326 FILLER_165_1217
*9327 FILLER_165_1220
*9328 FILLER_165_1223
*9329 FILLER_165_1226
*9330 FILLER_165_1229
*9331 FILLER_165_1232
*9332 FILLER_165_1235
*9333 FILLER_165_1238
*9334 FILLER_165_1241
*9335 FILLER_165_1244
*9336 FILLER_165_1247
*9337 FILLER_165_1250
*9338 FILLER_165_1253
*9339 FILLER_165_1256
*9340 FILLER_165_1259
*9341 FILLER_165_1262
*9342 FILLER_165_1265
*9343 FILLER_165_1268
*9344 FILLER_165_1271
*9345 FILLER_165_1274
*9346 FILLER_165_1277
*9347 FILLER_165_1280
*9348 FILLER_165_1283
*9349 FILLER_165_1286
*9350 FILLER_165_1289
*9351 FILLER_165_1292
*9352 FILLER_165_1295
*9353 FILLER_165_1298
*9354 FILLER_165_1301
*9355 FILLER_165_1304
*9356 FILLER_165_1307
*9357 FILLER_165_1310
*9358 FILLER_165_1313
*9359 FILLER_165_1316
*9360 FILLER_165_1318
*9361 FILLER_165_1321
*9362 FILLER_165_1324
*9363 FILLER_165_1327
*9364 FILLER_165_1330
*9365 FILLER_165_1333
*9366 FILLER_165_1336
*9367 FILLER_165_1339
*9368 FILLER_165_1342
*9369 FILLER_165_1345
*9370 FILLER_165_1348
*9371 FILLER_165_1351
*9372 FILLER_165_1354
*9373 FILLER_165_1357
*9374 FILLER_165_1360
*9375 FILLER_165_1363
*9376 FILLER_165_15
*9377 FILLER_165_18
*9378 FILLER_165_21
*9379 FILLER_165_24
*9380 FILLER_165_27
*9381 FILLER_165_3
*9382 FILLER_165_30
*9383 FILLER_165_33
*9384 FILLER_165_36
*9385 FILLER_165_39
*9386 FILLER_165_42
*9387 FILLER_165_45
*9388 FILLER_165_48
*9389 FILLER_165_51
*9390 FILLER_165_54
*9391 FILLER_165_57
*9392 FILLER_165_6
*9393 FILLER_165_60
*9394 FILLER_165_63
*9395 FILLER_165_66
*9396 FILLER_165_69
*9397 FILLER_165_72
*9398 FILLER_165_75
*9399 FILLER_165_78
*9400 FILLER_165_81
*9401 FILLER_165_84
*9402 FILLER_165_87
*9403 FILLER_165_9
*9404 FILLER_165_90
*9405 FILLER_165_93
*9406 FILLER_165_96
*9407 FILLER_165_99
*9408 FILLER_166_100
*9409 FILLER_166_103
*9410 FILLER_166_106
*9411 FILLER_166_109
*9412 FILLER_166_112
*9413 FILLER_166_12
*9414 FILLER_166_1208
*9415 FILLER_166_1211
*9416 FILLER_166_1214
*9417 FILLER_166_1217
*9418 FILLER_166_1220
*9419 FILLER_166_1223
*9420 FILLER_166_1226
*9421 FILLER_166_1229
*9422 FILLER_166_1232
*9423 FILLER_166_1234
*9424 FILLER_166_1237
*9425 FILLER_166_1240
*9426 FILLER_166_1243
*9427 FILLER_166_1246
*9428 FILLER_166_1249
*9429 FILLER_166_1252
*9430 FILLER_166_1255
*9431 FILLER_166_1258
*9432 FILLER_166_1261
*9433 FILLER_166_1264
*9434 FILLER_166_1267
*9435 FILLER_166_1270
*9436 FILLER_166_1273
*9437 FILLER_166_1276
*9438 FILLER_166_1279
*9439 FILLER_166_1282
*9440 FILLER_166_1285
*9441 FILLER_166_1288
*9442 FILLER_166_1290
*9443 FILLER_166_1293
*9444 FILLER_166_1296
*9445 FILLER_166_1299
*9446 FILLER_166_1302
*9447 FILLER_166_1305
*9448 FILLER_166_1308
*9449 FILLER_166_1311
*9450 FILLER_166_1314
*9451 FILLER_166_1317
*9452 FILLER_166_1320
*9453 FILLER_166_1323
*9454 FILLER_166_1326
*9455 FILLER_166_1329
*9456 FILLER_166_1332
*9457 FILLER_166_1335
*9458 FILLER_166_1338
*9459 FILLER_166_1341
*9460 FILLER_166_1344
*9461 FILLER_166_1346
*9462 FILLER_166_1349
*9463 FILLER_166_1352
*9464 FILLER_166_1355
*9465 FILLER_166_1358
*9466 FILLER_166_1361
*9467 FILLER_166_15
*9468 FILLER_166_18
*9469 FILLER_166_21
*9470 FILLER_166_24
*9471 FILLER_166_27
*9472 FILLER_166_29
*9473 FILLER_166_3
*9474 FILLER_166_32
*9475 FILLER_166_35
*9476 FILLER_166_38
*9477 FILLER_166_41
*9478 FILLER_166_44
*9479 FILLER_166_47
*9480 FILLER_166_50
*9481 FILLER_166_53
*9482 FILLER_166_56
*9483 FILLER_166_59
*9484 FILLER_166_6
*9485 FILLER_166_62
*9486 FILLER_166_65
*9487 FILLER_166_68
*9488 FILLER_166_71
*9489 FILLER_166_74
*9490 FILLER_166_77
*9491 FILLER_166_80
*9492 FILLER_166_83
*9493 FILLER_166_85
*9494 FILLER_166_88
*9495 FILLER_166_9
*9496 FILLER_166_91
*9497 FILLER_166_94
*9498 FILLER_166_97
*9499 FILLER_167_102
*9500 FILLER_167_105
*9501 FILLER_167_108
*9502 FILLER_167_111
*9503 FILLER_167_113
*9504 FILLER_167_12
*9505 FILLER_167_1208
*9506 FILLER_167_1211
*9507 FILLER_167_1214
*9508 FILLER_167_1217
*9509 FILLER_167_1220
*9510 FILLER_167_1223
*9511 FILLER_167_1226
*9512 FILLER_167_1229
*9513 FILLER_167_1232
*9514 FILLER_167_1235
*9515 FILLER_167_1238
*9516 FILLER_167_1241
*9517 FILLER_167_1244
*9518 FILLER_167_1247
*9519 FILLER_167_1250
*9520 FILLER_167_1253
*9521 FILLER_167_1256
*9522 FILLER_167_1259
*9523 FILLER_167_1262
*9524 FILLER_167_1265
*9525 FILLER_167_1268
*9526 FILLER_167_1271
*9527 FILLER_167_1274
*9528 FILLER_167_1277
*9529 FILLER_167_1280
*9530 FILLER_167_1283
*9531 FILLER_167_1286
*9532 FILLER_167_1289
*9533 FILLER_167_1292
*9534 FILLER_167_1295
*9535 FILLER_167_1298
*9536 FILLER_167_1301
*9537 FILLER_167_1304
*9538 FILLER_167_1307
*9539 FILLER_167_1310
*9540 FILLER_167_1313
*9541 FILLER_167_1316
*9542 FILLER_167_1318
*9543 FILLER_167_1321
*9544 FILLER_167_1324
*9545 FILLER_167_1327
*9546 FILLER_167_1330
*9547 FILLER_167_1333
*9548 FILLER_167_1336
*9549 FILLER_167_1339
*9550 FILLER_167_1342
*9551 FILLER_167_1345
*9552 FILLER_167_1348
*9553 FILLER_167_1351
*9554 FILLER_167_1354
*9555 FILLER_167_1357
*9556 FILLER_167_1360
*9557 FILLER_167_1363
*9558 FILLER_167_15
*9559 FILLER_167_18
*9560 FILLER_167_21
*9561 FILLER_167_24
*9562 FILLER_167_27
*9563 FILLER_167_3
*9564 FILLER_167_30
*9565 FILLER_167_33
*9566 FILLER_167_36
*9567 FILLER_167_39
*9568 FILLER_167_42
*9569 FILLER_167_45
*9570 FILLER_167_48
*9571 FILLER_167_51
*9572 FILLER_167_54
*9573 FILLER_167_57
*9574 FILLER_167_6
*9575 FILLER_167_60
*9576 FILLER_167_63
*9577 FILLER_167_66
*9578 FILLER_167_69
*9579 FILLER_167_72
*9580 FILLER_167_75
*9581 FILLER_167_78
*9582 FILLER_167_81
*9583 FILLER_167_84
*9584 FILLER_167_87
*9585 FILLER_167_9
*9586 FILLER_167_90
*9587 FILLER_167_93
*9588 FILLER_167_96
*9589 FILLER_167_99
*9590 FILLER_168_100
*9591 FILLER_168_103
*9592 FILLER_168_106
*9593 FILLER_168_109
*9594 FILLER_168_112
*9595 FILLER_168_12
*9596 FILLER_168_1208
*9597 FILLER_168_1211
*9598 FILLER_168_1214
*9599 FILLER_168_1217
*9600 FILLER_168_1220
*9601 FILLER_168_1223
*9602 FILLER_168_1226
*9603 FILLER_168_1229
*9604 FILLER_168_1232
*9605 FILLER_168_1234
*9606 FILLER_168_1237
*9607 FILLER_168_1240
*9608 FILLER_168_1243
*9609 FILLER_168_1246
*9610 FILLER_168_1249
*9611 FILLER_168_1252
*9612 FILLER_168_1255
*9613 FILLER_168_1258
*9614 FILLER_168_1261
*9615 FILLER_168_1264
*9616 FILLER_168_1267
*9617 FILLER_168_1270
*9618 FILLER_168_1273
*9619 FILLER_168_1276
*9620 FILLER_168_1279
*9621 FILLER_168_1282
*9622 FILLER_168_1285
*9623 FILLER_168_1288
*9624 FILLER_168_1290
*9625 FILLER_168_1293
*9626 FILLER_168_1296
*9627 FILLER_168_1299
*9628 FILLER_168_1302
*9629 FILLER_168_1305
*9630 FILLER_168_1308
*9631 FILLER_168_1311
*9632 FILLER_168_1314
*9633 FILLER_168_1317
*9634 FILLER_168_1320
*9635 FILLER_168_1323
*9636 FILLER_168_1326
*9637 FILLER_168_1329
*9638 FILLER_168_1332
*9639 FILLER_168_1335
*9640 FILLER_168_1338
*9641 FILLER_168_1341
*9642 FILLER_168_1344
*9643 FILLER_168_1346
*9644 FILLER_168_1349
*9645 FILLER_168_1352
*9646 FILLER_168_1355
*9647 FILLER_168_1358
*9648 FILLER_168_1361
*9649 FILLER_168_15
*9650 FILLER_168_18
*9651 FILLER_168_21
*9652 FILLER_168_24
*9653 FILLER_168_27
*9654 FILLER_168_29
*9655 FILLER_168_3
*9656 FILLER_168_32
*9657 FILLER_168_35
*9658 FILLER_168_38
*9659 FILLER_168_41
*9660 FILLER_168_44
*9661 FILLER_168_47
*9662 FILLER_168_50
*9663 FILLER_168_53
*9664 FILLER_168_56
*9665 FILLER_168_59
*9666 FILLER_168_6
*9667 FILLER_168_62
*9668 FILLER_168_65
*9669 FILLER_168_68
*9670 FILLER_168_71
*9671 FILLER_168_74
*9672 FILLER_168_77
*9673 FILLER_168_80
*9674 FILLER_168_83
*9675 FILLER_168_85
*9676 FILLER_168_88
*9677 FILLER_168_9
*9678 FILLER_168_91
*9679 FILLER_168_94
*9680 FILLER_168_97
*9681 FILLER_169_102
*9682 FILLER_169_105
*9683 FILLER_169_108
*9684 FILLER_169_111
*9685 FILLER_169_113
*9686 FILLER_169_12
*9687 FILLER_169_1208
*9688 FILLER_169_1211
*9689 FILLER_169_1214
*9690 FILLER_169_1217
*9691 FILLER_169_1220
*9692 FILLER_169_1223
*9693 FILLER_169_1226
*9694 FILLER_169_1229
*9695 FILLER_169_1232
*9696 FILLER_169_1235
*9697 FILLER_169_1238
*9698 FILLER_169_1241
*9699 FILLER_169_1244
*9700 FILLER_169_1247
*9701 FILLER_169_1250
*9702 FILLER_169_1253
*9703 FILLER_169_1256
*9704 FILLER_169_1259
*9705 FILLER_169_1262
*9706 FILLER_169_1265
*9707 FILLER_169_1268
*9708 FILLER_169_1271
*9709 FILLER_169_1274
*9710 FILLER_169_1277
*9711 FILLER_169_1280
*9712 FILLER_169_1283
*9713 FILLER_169_1286
*9714 FILLER_169_1289
*9715 FILLER_169_1292
*9716 FILLER_169_1295
*9717 FILLER_169_1298
*9718 FILLER_169_1301
*9719 FILLER_169_1304
*9720 FILLER_169_1307
*9721 FILLER_169_1310
*9722 FILLER_169_1313
*9723 FILLER_169_1316
*9724 FILLER_169_1318
*9725 FILLER_169_1321
*9726 FILLER_169_1324
*9727 FILLER_169_1327
*9728 FILLER_169_1330
*9729 FILLER_169_1333
*9730 FILLER_169_1336
*9731 FILLER_169_1339
*9732 FILLER_169_1342
*9733 FILLER_169_1345
*9734 FILLER_169_1348
*9735 FILLER_169_1351
*9736 FILLER_169_1354
*9737 FILLER_169_1357
*9738 FILLER_169_1360
*9739 FILLER_169_1363
*9740 FILLER_169_15
*9741 FILLER_169_18
*9742 FILLER_169_21
*9743 FILLER_169_24
*9744 FILLER_169_27
*9745 FILLER_169_3
*9746 FILLER_169_30
*9747 FILLER_169_33
*9748 FILLER_169_36
*9749 FILLER_169_39
*9750 FILLER_169_42
*9751 FILLER_169_45
*9752 FILLER_169_48
*9753 FILLER_169_51
*9754 FILLER_169_54
*9755 FILLER_169_57
*9756 FILLER_169_6
*9757 FILLER_169_60
*9758 FILLER_169_63
*9759 FILLER_169_66
*9760 FILLER_169_69
*9761 FILLER_169_72
*9762 FILLER_169_75
*9763 FILLER_169_78
*9764 FILLER_169_81
*9765 FILLER_169_84
*9766 FILLER_169_87
*9767 FILLER_169_9
*9768 FILLER_169_90
*9769 FILLER_169_93
*9770 FILLER_169_96
*9771 FILLER_169_99
*9772 FILLER_16_100
*9773 FILLER_16_1002
*9774 FILLER_16_1005
*9775 FILLER_16_1008
*9776 FILLER_16_1011
*9777 FILLER_16_1014
*9778 FILLER_16_1017
*9779 FILLER_16_1020
*9780 FILLER_16_1023
*9781 FILLER_16_1026
*9782 FILLER_16_1029
*9783 FILLER_16_103
*9784 FILLER_16_1032
*9785 FILLER_16_1035
*9786 FILLER_16_1037
*9787 FILLER_16_1040
*9788 FILLER_16_1043
*9789 FILLER_16_1046
*9790 FILLER_16_1049
*9791 FILLER_16_1052
*9792 FILLER_16_1055
*9793 FILLER_16_1058
*9794 FILLER_16_106
*9795 FILLER_16_1061
*9796 FILLER_16_1064
*9797 FILLER_16_1067
*9798 FILLER_16_1070
*9799 FILLER_16_1073
*9800 FILLER_16_1076
*9801 FILLER_16_1079
*9802 FILLER_16_1082
*9803 FILLER_16_1085
*9804 FILLER_16_1088
*9805 FILLER_16_109
*9806 FILLER_16_1091
*9807 FILLER_16_1093
*9808 FILLER_16_1096
*9809 FILLER_16_1099
*9810 FILLER_16_1102
*9811 FILLER_16_1105
*9812 FILLER_16_1108
*9813 FILLER_16_1111
*9814 FILLER_16_1114
*9815 FILLER_16_1117
*9816 FILLER_16_112
*9817 FILLER_16_1120
*9818 FILLER_16_1123
*9819 FILLER_16_1126
*9820 FILLER_16_1129
*9821 FILLER_16_1132
*9822 FILLER_16_1135
*9823 FILLER_16_1138
*9824 FILLER_16_1141
*9825 FILLER_16_1144
*9826 FILLER_16_1147
*9827 FILLER_16_1149
*9828 FILLER_16_115
*9829 FILLER_16_1152
*9830 FILLER_16_1155
*9831 FILLER_16_1158
*9832 FILLER_16_1161
*9833 FILLER_16_1164
*9834 FILLER_16_1167
*9835 FILLER_16_1170
*9836 FILLER_16_1173
*9837 FILLER_16_1176
*9838 FILLER_16_1179
*9839 FILLER_16_118
*9840 FILLER_16_1182
*9841 FILLER_16_1185
*9842 FILLER_16_1188
*9843 FILLER_16_1191
*9844 FILLER_16_1194
*9845 FILLER_16_1197
*9846 FILLER_16_12
*9847 FILLER_16_1200
*9848 FILLER_16_1203
*9849 FILLER_16_1205
*9850 FILLER_16_1208
*9851 FILLER_16_121
*9852 FILLER_16_1211
*9853 FILLER_16_1214
*9854 FILLER_16_1217
*9855 FILLER_16_1220
*9856 FILLER_16_1223
*9857 FILLER_16_1226
*9858 FILLER_16_1229
*9859 FILLER_16_1232
*9860 FILLER_16_1235
*9861 FILLER_16_1238
*9862 FILLER_16_124
*9863 FILLER_16_1241
*9864 FILLER_16_1244
*9865 FILLER_16_1247
*9866 FILLER_16_1250
*9867 FILLER_16_1253
*9868 FILLER_16_1256
*9869 FILLER_16_1259
*9870 FILLER_16_1261
*9871 FILLER_16_1264
*9872 FILLER_16_1267
*9873 FILLER_16_127
*9874 FILLER_16_1270
*9875 FILLER_16_1273
*9876 FILLER_16_1276
*9877 FILLER_16_1279
*9878 FILLER_16_1282
*9879 FILLER_16_1285
*9880 FILLER_16_1288
*9881 FILLER_16_1291
*9882 FILLER_16_1294
*9883 FILLER_16_1297
*9884 FILLER_16_130
*9885 FILLER_16_1300
*9886 FILLER_16_1303
*9887 FILLER_16_1306
*9888 FILLER_16_1309
*9889 FILLER_16_1312
*9890 FILLER_16_1315
*9891 FILLER_16_1317
*9892 FILLER_16_1320
*9893 FILLER_16_1323
*9894 FILLER_16_1326
*9895 FILLER_16_1329
*9896 FILLER_16_133
*9897 FILLER_16_1332
*9898 FILLER_16_1335
*9899 FILLER_16_1338
*9900 FILLER_16_1341
*9901 FILLER_16_1344
*9902 FILLER_16_1347
*9903 FILLER_16_1350
*9904 FILLER_16_1353
*9905 FILLER_16_1356
*9906 FILLER_16_1359
*9907 FILLER_16_136
*9908 FILLER_16_1362
*9909 FILLER_16_139
*9910 FILLER_16_141
*9911 FILLER_16_144
*9912 FILLER_16_147
*9913 FILLER_16_15
*9914 FILLER_16_150
*9915 FILLER_16_153
*9916 FILLER_16_156
*9917 FILLER_16_159
*9918 FILLER_16_162
*9919 FILLER_16_165
*9920 FILLER_16_168
*9921 FILLER_16_171
*9922 FILLER_16_174
*9923 FILLER_16_177
*9924 FILLER_16_18
*9925 FILLER_16_180
*9926 FILLER_16_183
*9927 FILLER_16_186
*9928 FILLER_16_189
*9929 FILLER_16_192
*9930 FILLER_16_195
*9931 FILLER_16_197
*9932 FILLER_16_200
*9933 FILLER_16_203
*9934 FILLER_16_206
*9935 FILLER_16_209
*9936 FILLER_16_21
*9937 FILLER_16_212
*9938 FILLER_16_215
*9939 FILLER_16_218
*9940 FILLER_16_221
*9941 FILLER_16_224
*9942 FILLER_16_227
*9943 FILLER_16_230
*9944 FILLER_16_233
*9945 FILLER_16_236
*9946 FILLER_16_239
*9947 FILLER_16_24
*9948 FILLER_16_242
*9949 FILLER_16_245
*9950 FILLER_16_248
*9951 FILLER_16_251
*9952 FILLER_16_253
*9953 FILLER_16_256
*9954 FILLER_16_259
*9955 FILLER_16_262
*9956 FILLER_16_265
*9957 FILLER_16_268
*9958 FILLER_16_27
*9959 FILLER_16_271
*9960 FILLER_16_274
*9961 FILLER_16_277
*9962 FILLER_16_280
*9963 FILLER_16_283
*9964 FILLER_16_286
*9965 FILLER_16_289
*9966 FILLER_16_29
*9967 FILLER_16_292
*9968 FILLER_16_295
*9969 FILLER_16_298
*9970 FILLER_16_3
*9971 FILLER_16_301
*9972 FILLER_16_304
*9973 FILLER_16_307
*9974 FILLER_16_309
*9975 FILLER_16_312
*9976 FILLER_16_315
*9977 FILLER_16_318
*9978 FILLER_16_32
*9979 FILLER_16_321
*9980 FILLER_16_324
*9981 FILLER_16_327
*9982 FILLER_16_330
*9983 FILLER_16_333
*9984 FILLER_16_336
*9985 FILLER_16_339
*9986 FILLER_16_342
*9987 FILLER_16_345
*9988 FILLER_16_348
*9989 FILLER_16_35
*9990 FILLER_16_351
*9991 FILLER_16_354
*9992 FILLER_16_357
*9993 FILLER_16_360
*9994 FILLER_16_363
*9995 FILLER_16_365
*9996 FILLER_16_368
*9997 FILLER_16_371
*9998 FILLER_16_374
*9999 FILLER_16_377
*10000 FILLER_16_38
*10001 FILLER_16_380
*10002 FILLER_16_383
*10003 FILLER_16_386
*10004 FILLER_16_389
*10005 FILLER_16_392
*10006 FILLER_16_395
*10007 FILLER_16_398
*10008 FILLER_16_401
*10009 FILLER_16_404
*10010 FILLER_16_407
*10011 FILLER_16_41
*10012 FILLER_16_410
*10013 FILLER_16_413
*10014 FILLER_16_416
*10015 FILLER_16_419
*10016 FILLER_16_421
*10017 FILLER_16_424
*10018 FILLER_16_427
*10019 FILLER_16_430
*10020 FILLER_16_433
*10021 FILLER_16_436
*10022 FILLER_16_439
*10023 FILLER_16_44
*10024 FILLER_16_442
*10025 FILLER_16_445
*10026 FILLER_16_448
*10027 FILLER_16_451
*10028 FILLER_16_454
*10029 FILLER_16_457
*10030 FILLER_16_460
*10031 FILLER_16_463
*10032 FILLER_16_466
*10033 FILLER_16_469
*10034 FILLER_16_47
*10035 FILLER_16_472
*10036 FILLER_16_475
*10037 FILLER_16_477
*10038 FILLER_16_480
*10039 FILLER_16_483
*10040 FILLER_16_486
*10041 FILLER_16_489
*10042 FILLER_16_492
*10043 FILLER_16_495
*10044 FILLER_16_498
*10045 FILLER_16_50
*10046 FILLER_16_501
*10047 FILLER_16_504
*10048 FILLER_16_507
*10049 FILLER_16_510
*10050 FILLER_16_513
*10051 FILLER_16_516
*10052 FILLER_16_519
*10053 FILLER_16_522
*10054 FILLER_16_525
*10055 FILLER_16_528
*10056 FILLER_16_53
*10057 FILLER_16_531
*10058 FILLER_16_533
*10059 FILLER_16_536
*10060 FILLER_16_539
*10061 FILLER_16_542
*10062 FILLER_16_545
*10063 FILLER_16_548
*10064 FILLER_16_551
*10065 FILLER_16_554
*10066 FILLER_16_557
*10067 FILLER_16_56
*10068 FILLER_16_560
*10069 FILLER_16_563
*10070 FILLER_16_566
*10071 FILLER_16_569
*10072 FILLER_16_572
*10073 FILLER_16_575
*10074 FILLER_16_578
*10075 FILLER_16_581
*10076 FILLER_16_584
*10077 FILLER_16_587
*10078 FILLER_16_589
*10079 FILLER_16_59
*10080 FILLER_16_592
*10081 FILLER_16_595
*10082 FILLER_16_598
*10083 FILLER_16_6
*10084 FILLER_16_601
*10085 FILLER_16_604
*10086 FILLER_16_607
*10087 FILLER_16_610
*10088 FILLER_16_613
*10089 FILLER_16_616
*10090 FILLER_16_619
*10091 FILLER_16_62
*10092 FILLER_16_622
*10093 FILLER_16_625
*10094 FILLER_16_628
*10095 FILLER_16_631
*10096 FILLER_16_634
*10097 FILLER_16_637
*10098 FILLER_16_640
*10099 FILLER_16_643
*10100 FILLER_16_645
*10101 FILLER_16_648
*10102 FILLER_16_65
*10103 FILLER_16_651
*10104 FILLER_16_654
*10105 FILLER_16_657
*10106 FILLER_16_660
*10107 FILLER_16_663
*10108 FILLER_16_666
*10109 FILLER_16_669
*10110 FILLER_16_672
*10111 FILLER_16_675
*10112 FILLER_16_678
*10113 FILLER_16_68
*10114 FILLER_16_681
*10115 FILLER_16_684
*10116 FILLER_16_687
*10117 FILLER_16_690
*10118 FILLER_16_693
*10119 FILLER_16_696
*10120 FILLER_16_699
*10121 FILLER_16_701
*10122 FILLER_16_704
*10123 FILLER_16_707
*10124 FILLER_16_71
*10125 FILLER_16_710
*10126 FILLER_16_713
*10127 FILLER_16_716
*10128 FILLER_16_719
*10129 FILLER_16_722
*10130 FILLER_16_725
*10131 FILLER_16_728
*10132 FILLER_16_731
*10133 FILLER_16_734
*10134 FILLER_16_737
*10135 FILLER_16_74
*10136 FILLER_16_740
*10137 FILLER_16_743
*10138 FILLER_16_746
*10139 FILLER_16_749
*10140 FILLER_16_752
*10141 FILLER_16_755
*10142 FILLER_16_757
*10143 FILLER_16_760
*10144 FILLER_16_763
*10145 FILLER_16_766
*10146 FILLER_16_769
*10147 FILLER_16_77
*10148 FILLER_16_772
*10149 FILLER_16_775
*10150 FILLER_16_778
*10151 FILLER_16_781
*10152 FILLER_16_784
*10153 FILLER_16_787
*10154 FILLER_16_790
*10155 FILLER_16_793
*10156 FILLER_16_796
*10157 FILLER_16_799
*10158 FILLER_16_80
*10159 FILLER_16_802
*10160 FILLER_16_805
*10161 FILLER_16_808
*10162 FILLER_16_811
*10163 FILLER_16_813
*10164 FILLER_16_816
*10165 FILLER_16_819
*10166 FILLER_16_822
*10167 FILLER_16_825
*10168 FILLER_16_828
*10169 FILLER_16_83
*10170 FILLER_16_831
*10171 FILLER_16_834
*10172 FILLER_16_837
*10173 FILLER_16_840
*10174 FILLER_16_843
*10175 FILLER_16_846
*10176 FILLER_16_849
*10177 FILLER_16_85
*10178 FILLER_16_852
*10179 FILLER_16_855
*10180 FILLER_16_858
*10181 FILLER_16_861
*10182 FILLER_16_864
*10183 FILLER_16_867
*10184 FILLER_16_869
*10185 FILLER_16_872
*10186 FILLER_16_875
*10187 FILLER_16_878
*10188 FILLER_16_88
*10189 FILLER_16_881
*10190 FILLER_16_884
*10191 FILLER_16_887
*10192 FILLER_16_890
*10193 FILLER_16_893
*10194 FILLER_16_896
*10195 FILLER_16_899
*10196 FILLER_16_9
*10197 FILLER_16_902
*10198 FILLER_16_905
*10199 FILLER_16_908
*10200 FILLER_16_91
*10201 FILLER_16_911
*10202 FILLER_16_914
*10203 FILLER_16_917
*10204 FILLER_16_920
*10205 FILLER_16_923
*10206 FILLER_16_925
*10207 FILLER_16_928
*10208 FILLER_16_931
*10209 FILLER_16_934
*10210 FILLER_16_937
*10211 FILLER_16_94
*10212 FILLER_16_940
*10213 FILLER_16_943
*10214 FILLER_16_946
*10215 FILLER_16_949
*10216 FILLER_16_952
*10217 FILLER_16_955
*10218 FILLER_16_958
*10219 FILLER_16_961
*10220 FILLER_16_964
*10221 FILLER_16_967
*10222 FILLER_16_97
*10223 FILLER_16_970
*10224 FILLER_16_973
*10225 FILLER_16_976
*10226 FILLER_16_979
*10227 FILLER_16_981
*10228 FILLER_16_984
*10229 FILLER_16_987
*10230 FILLER_16_990
*10231 FILLER_16_993
*10232 FILLER_16_996
*10233 FILLER_16_999
*10234 FILLER_170_100
*10235 FILLER_170_103
*10236 FILLER_170_106
*10237 FILLER_170_109
*10238 FILLER_170_112
*10239 FILLER_170_12
*10240 FILLER_170_1208
*10241 FILLER_170_1211
*10242 FILLER_170_1214
*10243 FILLER_170_1217
*10244 FILLER_170_1220
*10245 FILLER_170_1223
*10246 FILLER_170_1226
*10247 FILLER_170_1229
*10248 FILLER_170_1232
*10249 FILLER_170_1234
*10250 FILLER_170_1237
*10251 FILLER_170_1240
*10252 FILLER_170_1243
*10253 FILLER_170_1246
*10254 FILLER_170_1249
*10255 FILLER_170_1252
*10256 FILLER_170_1255
*10257 FILLER_170_1258
*10258 FILLER_170_1261
*10259 FILLER_170_1264
*10260 FILLER_170_1267
*10261 FILLER_170_1270
*10262 FILLER_170_1273
*10263 FILLER_170_1276
*10264 FILLER_170_1279
*10265 FILLER_170_1282
*10266 FILLER_170_1285
*10267 FILLER_170_1288
*10268 FILLER_170_1290
*10269 FILLER_170_1293
*10270 FILLER_170_1296
*10271 FILLER_170_1299
*10272 FILLER_170_1302
*10273 FILLER_170_1305
*10274 FILLER_170_1308
*10275 FILLER_170_1311
*10276 FILLER_170_1314
*10277 FILLER_170_1317
*10278 FILLER_170_1320
*10279 FILLER_170_1323
*10280 FILLER_170_1326
*10281 FILLER_170_1329
*10282 FILLER_170_1332
*10283 FILLER_170_1335
*10284 FILLER_170_1338
*10285 FILLER_170_1341
*10286 FILLER_170_1344
*10287 FILLER_170_1346
*10288 FILLER_170_1349
*10289 FILLER_170_1352
*10290 FILLER_170_1355
*10291 FILLER_170_1358
*10292 FILLER_170_1361
*10293 FILLER_170_15
*10294 FILLER_170_18
*10295 FILLER_170_21
*10296 FILLER_170_24
*10297 FILLER_170_27
*10298 FILLER_170_29
*10299 FILLER_170_3
*10300 FILLER_170_32
*10301 FILLER_170_35
*10302 FILLER_170_38
*10303 FILLER_170_41
*10304 FILLER_170_44
*10305 FILLER_170_47
*10306 FILLER_170_50
*10307 FILLER_170_53
*10308 FILLER_170_56
*10309 FILLER_170_59
*10310 FILLER_170_6
*10311 FILLER_170_62
*10312 FILLER_170_65
*10313 FILLER_170_68
*10314 FILLER_170_71
*10315 FILLER_170_74
*10316 FILLER_170_77
*10317 FILLER_170_80
*10318 FILLER_170_83
*10319 FILLER_170_85
*10320 FILLER_170_88
*10321 FILLER_170_9
*10322 FILLER_170_91
*10323 FILLER_170_94
*10324 FILLER_170_97
*10325 FILLER_171_102
*10326 FILLER_171_105
*10327 FILLER_171_108
*10328 FILLER_171_111
*10329 FILLER_171_113
*10330 FILLER_171_12
*10331 FILLER_171_1208
*10332 FILLER_171_1211
*10333 FILLER_171_1214
*10334 FILLER_171_1217
*10335 FILLER_171_1220
*10336 FILLER_171_1223
*10337 FILLER_171_1226
*10338 FILLER_171_1229
*10339 FILLER_171_1232
*10340 FILLER_171_1235
*10341 FILLER_171_1238
*10342 FILLER_171_1241
*10343 FILLER_171_1244
*10344 FILLER_171_1247
*10345 FILLER_171_1250
*10346 FILLER_171_1253
*10347 FILLER_171_1256
*10348 FILLER_171_1259
*10349 FILLER_171_1262
*10350 FILLER_171_1265
*10351 FILLER_171_1268
*10352 FILLER_171_1271
*10353 FILLER_171_1274
*10354 FILLER_171_1277
*10355 FILLER_171_1280
*10356 FILLER_171_1283
*10357 FILLER_171_1286
*10358 FILLER_171_1289
*10359 FILLER_171_1292
*10360 FILLER_171_1295
*10361 FILLER_171_1298
*10362 FILLER_171_1301
*10363 FILLER_171_1304
*10364 FILLER_171_1307
*10365 FILLER_171_1310
*10366 FILLER_171_1313
*10367 FILLER_171_1316
*10368 FILLER_171_1318
*10369 FILLER_171_1321
*10370 FILLER_171_1324
*10371 FILLER_171_1327
*10372 FILLER_171_1330
*10373 FILLER_171_1333
*10374 FILLER_171_1336
*10375 FILLER_171_1339
*10376 FILLER_171_1342
*10377 FILLER_171_1345
*10378 FILLER_171_1348
*10379 FILLER_171_1351
*10380 FILLER_171_1354
*10381 FILLER_171_1357
*10382 FILLER_171_1360
*10383 FILLER_171_1363
*10384 FILLER_171_15
*10385 FILLER_171_18
*10386 FILLER_171_21
*10387 FILLER_171_24
*10388 FILLER_171_27
*10389 FILLER_171_3
*10390 FILLER_171_30
*10391 FILLER_171_33
*10392 FILLER_171_36
*10393 FILLER_171_39
*10394 FILLER_171_42
*10395 FILLER_171_45
*10396 FILLER_171_48
*10397 FILLER_171_51
*10398 FILLER_171_54
*10399 FILLER_171_57
*10400 FILLER_171_6
*10401 FILLER_171_60
*10402 FILLER_171_63
*10403 FILLER_171_66
*10404 FILLER_171_69
*10405 FILLER_171_72
*10406 FILLER_171_75
*10407 FILLER_171_78
*10408 FILLER_171_81
*10409 FILLER_171_84
*10410 FILLER_171_87
*10411 FILLER_171_9
*10412 FILLER_171_90
*10413 FILLER_171_93
*10414 FILLER_171_96
*10415 FILLER_171_99
*10416 FILLER_172_100
*10417 FILLER_172_1004
*10418 FILLER_172_1007
*10419 FILLER_172_1009
*10420 FILLER_172_1012
*10421 FILLER_172_1015
*10422 FILLER_172_1018
*10423 FILLER_172_1021
*10424 FILLER_172_1024
*10425 FILLER_172_1027
*10426 FILLER_172_103
*10427 FILLER_172_1030
*10428 FILLER_172_1033
*10429 FILLER_172_1037
*10430 FILLER_172_1040
*10431 FILLER_172_1043
*10432 FILLER_172_1046
*10433 FILLER_172_1049
*10434 FILLER_172_1052
*10435 FILLER_172_1055
*10436 FILLER_172_1058
*10437 FILLER_172_106
*10438 FILLER_172_1061
*10439 FILLER_172_1065
*10440 FILLER_172_1068
*10441 FILLER_172_1071
*10442 FILLER_172_1074
*10443 FILLER_172_1077
*10444 FILLER_172_1080
*10445 FILLER_172_1083
*10446 FILLER_172_1086
*10447 FILLER_172_1089
*10448 FILLER_172_109
*10449 FILLER_172_1093
*10450 FILLER_172_1096
*10451 FILLER_172_1099
*10452 FILLER_172_1102
*10453 FILLER_172_1105
*10454 FILLER_172_1108
*10455 FILLER_172_1111
*10456 FILLER_172_1114
*10457 FILLER_172_1117
*10458 FILLER_172_1121
*10459 FILLER_172_1124
*10460 FILLER_172_1127
*10461 FILLER_172_113
*10462 FILLER_172_1130
*10463 FILLER_172_1133
*10464 FILLER_172_1136
*10465 FILLER_172_1139
*10466 FILLER_172_1142
*10467 FILLER_172_1145
*10468 FILLER_172_1149
*10469 FILLER_172_1152
*10470 FILLER_172_1155
*10471 FILLER_172_1158
*10472 FILLER_172_116
*10473 FILLER_172_1161
*10474 FILLER_172_1164
*10475 FILLER_172_1167
*10476 FILLER_172_1170
*10477 FILLER_172_1173
*10478 FILLER_172_1177
*10479 FILLER_172_1180
*10480 FILLER_172_1183
*10481 FILLER_172_1186
*10482 FILLER_172_1189
*10483 FILLER_172_119
*10484 FILLER_172_1192
*10485 FILLER_172_1195
*10486 FILLER_172_1198
*10487 FILLER_172_12
*10488 FILLER_172_1201
*10489 FILLER_172_1205
*10490 FILLER_172_1208
*10491 FILLER_172_1211
*10492 FILLER_172_1214
*10493 FILLER_172_1217
*10494 FILLER_172_122
*10495 FILLER_172_1220
*10496 FILLER_172_1223
*10497 FILLER_172_1226
*10498 FILLER_172_1229
*10499 FILLER_172_1233
*10500 FILLER_172_1236
*10501 FILLER_172_1239
*10502 FILLER_172_1242
*10503 FILLER_172_1245
*10504 FILLER_172_1248
*10505 FILLER_172_125
*10506 FILLER_172_1251
*10507 FILLER_172_1254
*10508 FILLER_172_1257
*10509 FILLER_172_1261
*10510 FILLER_172_1264
*10511 FILLER_172_1267
*10512 FILLER_172_1270
*10513 FILLER_172_1273
*10514 FILLER_172_1276
*10515 FILLER_172_1279
*10516 FILLER_172_128
*10517 FILLER_172_1282
*10518 FILLER_172_1285
*10519 FILLER_172_1289
*10520 FILLER_172_1292
*10521 FILLER_172_1295
*10522 FILLER_172_1298
*10523 FILLER_172_1301
*10524 FILLER_172_1304
*10525 FILLER_172_1307
*10526 FILLER_172_131
*10527 FILLER_172_1310
*10528 FILLER_172_1313
*10529 FILLER_172_1317
*10530 FILLER_172_1320
*10531 FILLER_172_1323
*10532 FILLER_172_1326
*10533 FILLER_172_1329
*10534 FILLER_172_1332
*10535 FILLER_172_1335
*10536 FILLER_172_1338
*10537 FILLER_172_134
*10538 FILLER_172_1341
*10539 FILLER_172_1345
*10540 FILLER_172_1348
*10541 FILLER_172_1351
*10542 FILLER_172_1354
*10543 FILLER_172_1357
*10544 FILLER_172_1360
*10545 FILLER_172_1363
*10546 FILLER_172_137
*10547 FILLER_172_141
*10548 FILLER_172_144
*10549 FILLER_172_147
*10550 FILLER_172_15
*10551 FILLER_172_150
*10552 FILLER_172_153
*10553 FILLER_172_156
*10554 FILLER_172_159
*10555 FILLER_172_162
*10556 FILLER_172_165
*10557 FILLER_172_169
*10558 FILLER_172_172
*10559 FILLER_172_175
*10560 FILLER_172_178
*10561 FILLER_172_18
*10562 FILLER_172_181
*10563 FILLER_172_184
*10564 FILLER_172_187
*10565 FILLER_172_190
*10566 FILLER_172_193
*10567 FILLER_172_197
*10568 FILLER_172_200
*10569 FILLER_172_203
*10570 FILLER_172_206
*10571 FILLER_172_209
*10572 FILLER_172_21
*10573 FILLER_172_212
*10574 FILLER_172_215
*10575 FILLER_172_218
*10576 FILLER_172_221
*10577 FILLER_172_225
*10578 FILLER_172_228
*10579 FILLER_172_231
*10580 FILLER_172_234
*10581 FILLER_172_237
*10582 FILLER_172_24
*10583 FILLER_172_240
*10584 FILLER_172_243
*10585 FILLER_172_246
*10586 FILLER_172_249
*10587 FILLER_172_253
*10588 FILLER_172_256
*10589 FILLER_172_259
*10590 FILLER_172_262
*10591 FILLER_172_265
*10592 FILLER_172_268
*10593 FILLER_172_27
*10594 FILLER_172_271
*10595 FILLER_172_274
*10596 FILLER_172_277
*10597 FILLER_172_281
*10598 FILLER_172_284
*10599 FILLER_172_287
*10600 FILLER_172_29
*10601 FILLER_172_290
*10602 FILLER_172_293
*10603 FILLER_172_296
*10604 FILLER_172_299
*10605 FILLER_172_3
*10606 FILLER_172_302
*10607 FILLER_172_305
*10608 FILLER_172_309
*10609 FILLER_172_312
*10610 FILLER_172_315
*10611 FILLER_172_318
*10612 FILLER_172_32
*10613 FILLER_172_321
*10614 FILLER_172_324
*10615 FILLER_172_327
*10616 FILLER_172_330
*10617 FILLER_172_333
*10618 FILLER_172_337
*10619 FILLER_172_340
*10620 FILLER_172_343
*10621 FILLER_172_346
*10622 FILLER_172_349
*10623 FILLER_172_35
*10624 FILLER_172_352
*10625 FILLER_172_355
*10626 FILLER_172_358
*10627 FILLER_172_361
*10628 FILLER_172_365
*10629 FILLER_172_368
*10630 FILLER_172_371
*10631 FILLER_172_374
*10632 FILLER_172_377
*10633 FILLER_172_38
*10634 FILLER_172_380
*10635 FILLER_172_383
*10636 FILLER_172_386
*10637 FILLER_172_389
*10638 FILLER_172_393
*10639 FILLER_172_396
*10640 FILLER_172_399
*10641 FILLER_172_402
*10642 FILLER_172_405
*10643 FILLER_172_408
*10644 FILLER_172_41
*10645 FILLER_172_411
*10646 FILLER_172_414
*10647 FILLER_172_417
*10648 FILLER_172_421
*10649 FILLER_172_424
*10650 FILLER_172_44
*10651 FILLER_172_445
*10652 FILLER_172_449
*10653 FILLER_172_452
*10654 FILLER_172_455
*10655 FILLER_172_458
*10656 FILLER_172_461
*10657 FILLER_172_464
*10658 FILLER_172_467
*10659 FILLER_172_47
*10660 FILLER_172_470
*10661 FILLER_172_473
*10662 FILLER_172_477
*10663 FILLER_172_480
*10664 FILLER_172_483
*10665 FILLER_172_486
*10666 FILLER_172_489
*10667 FILLER_172_492
*10668 FILLER_172_495
*10669 FILLER_172_498
*10670 FILLER_172_50
*10671 FILLER_172_501
*10672 FILLER_172_505
*10673 FILLER_172_508
*10674 FILLER_172_511
*10675 FILLER_172_514
*10676 FILLER_172_517
*10677 FILLER_172_520
*10678 FILLER_172_523
*10679 FILLER_172_526
*10680 FILLER_172_529
*10681 FILLER_172_53
*10682 FILLER_172_533
*10683 FILLER_172_536
*10684 FILLER_172_539
*10685 FILLER_172_542
*10686 FILLER_172_545
*10687 FILLER_172_548
*10688 FILLER_172_551
*10689 FILLER_172_554
*10690 FILLER_172_557
*10691 FILLER_172_561
*10692 FILLER_172_564
*10693 FILLER_172_567
*10694 FILLER_172_57
*10695 FILLER_172_570
*10696 FILLER_172_573
*10697 FILLER_172_576
*10698 FILLER_172_579
*10699 FILLER_172_582
*10700 FILLER_172_585
*10701 FILLER_172_589
*10702 FILLER_172_592
*10703 FILLER_172_595
*10704 FILLER_172_598
*10705 FILLER_172_6
*10706 FILLER_172_60
*10707 FILLER_172_601
*10708 FILLER_172_604
*10709 FILLER_172_607
*10710 FILLER_172_610
*10711 FILLER_172_613
*10712 FILLER_172_617
*10713 FILLER_172_620
*10714 FILLER_172_623
*10715 FILLER_172_626
*10716 FILLER_172_629
*10717 FILLER_172_63
*10718 FILLER_172_632
*10719 FILLER_172_635
*10720 FILLER_172_638
*10721 FILLER_172_641
*10722 FILLER_172_645
*10723 FILLER_172_648
*10724 FILLER_172_651
*10725 FILLER_172_66
*10726 FILLER_172_673
*10727 FILLER_172_676
*10728 FILLER_172_679
*10729 FILLER_172_682
*10730 FILLER_172_685
*10731 FILLER_172_688
*10732 FILLER_172_69
*10733 FILLER_172_691
*10734 FILLER_172_694
*10735 FILLER_172_697
*10736 FILLER_172_701
*10737 FILLER_172_704
*10738 FILLER_172_707
*10739 FILLER_172_710
*10740 FILLER_172_713
*10741 FILLER_172_716
*10742 FILLER_172_719
*10743 FILLER_172_72
*10744 FILLER_172_722
*10745 FILLER_172_725
*10746 FILLER_172_729
*10747 FILLER_172_732
*10748 FILLER_172_735
*10749 FILLER_172_738
*10750 FILLER_172_741
*10751 FILLER_172_744
*10752 FILLER_172_747
*10753 FILLER_172_75
*10754 FILLER_172_750
*10755 FILLER_172_753
*10756 FILLER_172_757
*10757 FILLER_172_760
*10758 FILLER_172_763
*10759 FILLER_172_766
*10760 FILLER_172_769
*10761 FILLER_172_772
*10762 FILLER_172_775
*10763 FILLER_172_778
*10764 FILLER_172_78
*10765 FILLER_172_781
*10766 FILLER_172_785
*10767 FILLER_172_788
*10768 FILLER_172_791
*10769 FILLER_172_794
*10770 FILLER_172_797
*10771 FILLER_172_800
*10772 FILLER_172_803
*10773 FILLER_172_806
*10774 FILLER_172_809
*10775 FILLER_172_81
*10776 FILLER_172_813
*10777 FILLER_172_816
*10778 FILLER_172_819
*10779 FILLER_172_822
*10780 FILLER_172_825
*10781 FILLER_172_828
*10782 FILLER_172_831
*10783 FILLER_172_834
*10784 FILLER_172_837
*10785 FILLER_172_841
*10786 FILLER_172_844
*10787 FILLER_172_847
*10788 FILLER_172_85
*10789 FILLER_172_850
*10790 FILLER_172_853
*10791 FILLER_172_856
*10792 FILLER_172_859
*10793 FILLER_172_862
*10794 FILLER_172_865
*10795 FILLER_172_869
*10796 FILLER_172_872
*10797 FILLER_172_875
*10798 FILLER_172_878
*10799 FILLER_172_88
*10800 FILLER_172_881
*10801 FILLER_172_884
*10802 FILLER_172_887
*10803 FILLER_172_890
*10804 FILLER_172_893
*10805 FILLER_172_897
*10806 FILLER_172_9
*10807 FILLER_172_91
*10808 FILLER_172_918
*10809 FILLER_172_921
*10810 FILLER_172_925
*10811 FILLER_172_928
*10812 FILLER_172_931
*10813 FILLER_172_934
*10814 FILLER_172_937
*10815 FILLER_172_94
*10816 FILLER_172_940
*10817 FILLER_172_943
*10818 FILLER_172_946
*10819 FILLER_172_949
*10820 FILLER_172_953
*10821 FILLER_172_956
*10822 FILLER_172_959
*10823 FILLER_172_962
*10824 FILLER_172_965
*10825 FILLER_172_968
*10826 FILLER_172_97
*10827 FILLER_172_971
*10828 FILLER_172_974
*10829 FILLER_172_977
*10830 FILLER_172_981
*10831 FILLER_172_984
*10832 FILLER_172_987
*10833 FILLER_172_990
*10834 FILLER_172_993
*10835 FILLER_172_996
*10836 FILLER_172_999
*10837 FILLER_173_1001
*10838 FILLER_173_1004
*10839 FILLER_173_1007
*10840 FILLER_173_1009
*10841 FILLER_173_1012
*10842 FILLER_173_1015
*10843 FILLER_173_1018
*10844 FILLER_173_102
*10845 FILLER_173_1021
*10846 FILLER_173_1024
*10847 FILLER_173_1027
*10848 FILLER_173_1030
*10849 FILLER_173_1033
*10850 FILLER_173_1036
*10851 FILLER_173_1039
*10852 FILLER_173_1042
*10853 FILLER_173_1045
*10854 FILLER_173_1048
*10855 FILLER_173_105
*10856 FILLER_173_1051
*10857 FILLER_173_1054
*10858 FILLER_173_1057
*10859 FILLER_173_1060
*10860 FILLER_173_1063
*10861 FILLER_173_1065
*10862 FILLER_173_1068
*10863 FILLER_173_1071
*10864 FILLER_173_1074
*10865 FILLER_173_1077
*10866 FILLER_173_108
*10867 FILLER_173_1080
*10868 FILLER_173_1083
*10869 FILLER_173_1086
*10870 FILLER_173_1089
*10871 FILLER_173_1092
*10872 FILLER_173_1095
*10873 FILLER_173_1098
*10874 FILLER_173_1101
*10875 FILLER_173_1104
*10876 FILLER_173_1107
*10877 FILLER_173_111
*10878 FILLER_173_1110
*10879 FILLER_173_1113
*10880 FILLER_173_1116
*10881 FILLER_173_1119
*10882 FILLER_173_1121
*10883 FILLER_173_1124
*10884 FILLER_173_1127
*10885 FILLER_173_113
*10886 FILLER_173_1130
*10887 FILLER_173_1133
*10888 FILLER_173_1136
*10889 FILLER_173_1139
*10890 FILLER_173_1142
*10891 FILLER_173_1145
*10892 FILLER_173_1148
*10893 FILLER_173_1151
*10894 FILLER_173_1154
*10895 FILLER_173_1157
*10896 FILLER_173_116
*10897 FILLER_173_1160
*10898 FILLER_173_1163
*10899 FILLER_173_1166
*10900 FILLER_173_1169
*10901 FILLER_173_1172
*10902 FILLER_173_1175
*10903 FILLER_173_1177
*10904 FILLER_173_1180
*10905 FILLER_173_1183
*10906 FILLER_173_1186
*10907 FILLER_173_1189
*10908 FILLER_173_119
*10909 FILLER_173_1192
*10910 FILLER_173_1195
*10911 FILLER_173_1198
*10912 FILLER_173_12
*10913 FILLER_173_1201
*10914 FILLER_173_1204
*10915 FILLER_173_1207
*10916 FILLER_173_1210
*10917 FILLER_173_1213
*10918 FILLER_173_1216
*10919 FILLER_173_1219
*10920 FILLER_173_122
*10921 FILLER_173_1222
*10922 FILLER_173_1225
*10923 FILLER_173_1228
*10924 FILLER_173_1231
*10925 FILLER_173_1233
*10926 FILLER_173_1236
*10927 FILLER_173_1239
*10928 FILLER_173_1242
*10929 FILLER_173_1245
*10930 FILLER_173_1248
*10931 FILLER_173_125
*10932 FILLER_173_1251
*10933 FILLER_173_1254
*10934 FILLER_173_1257
*10935 FILLER_173_1260
*10936 FILLER_173_1263
*10937 FILLER_173_1266
*10938 FILLER_173_1269
*10939 FILLER_173_1272
*10940 FILLER_173_1275
*10941 FILLER_173_1278
*10942 FILLER_173_128
*10943 FILLER_173_1281
*10944 FILLER_173_1284
*10945 FILLER_173_1287
*10946 FILLER_173_1289
*10947 FILLER_173_1292
*10948 FILLER_173_1295
*10949 FILLER_173_1298
*10950 FILLER_173_1301
*10951 FILLER_173_1304
*10952 FILLER_173_1307
*10953 FILLER_173_131
*10954 FILLER_173_1310
*10955 FILLER_173_1313
*10956 FILLER_173_1316
*10957 FILLER_173_1319
*10958 FILLER_173_1322
*10959 FILLER_173_1325
*10960 FILLER_173_1328
*10961 FILLER_173_1331
*10962 FILLER_173_1334
*10963 FILLER_173_1337
*10964 FILLER_173_134
*10965 FILLER_173_1340
*10966 FILLER_173_1343
*10967 FILLER_173_1345
*10968 FILLER_173_1348
*10969 FILLER_173_1351
*10970 FILLER_173_1354
*10971 FILLER_173_1357
*10972 FILLER_173_1360
*10973 FILLER_173_1363
*10974 FILLER_173_137
*10975 FILLER_173_140
*10976 FILLER_173_143
*10977 FILLER_173_146
*10978 FILLER_173_149
*10979 FILLER_173_15
*10980 FILLER_173_152
*10981 FILLER_173_155
*10982 FILLER_173_158
*10983 FILLER_173_161
*10984 FILLER_173_164
*10985 FILLER_173_167
*10986 FILLER_173_169
*10987 FILLER_173_172
*10988 FILLER_173_175
*10989 FILLER_173_178
*10990 FILLER_173_18
*10991 FILLER_173_181
*10992 FILLER_173_184
*10993 FILLER_173_187
*10994 FILLER_173_190
*10995 FILLER_173_193
*10996 FILLER_173_196
*10997 FILLER_173_199
*10998 FILLER_173_202
*10999 FILLER_173_205
*11000 FILLER_173_208
*11001 FILLER_173_21
*11002 FILLER_173_211
*11003 FILLER_173_214
*11004 FILLER_173_217
*11005 FILLER_173_220
*11006 FILLER_173_223
*11007 FILLER_173_225
*11008 FILLER_173_228
*11009 FILLER_173_231
*11010 FILLER_173_234
*11011 FILLER_173_237
*11012 FILLER_173_24
*11013 FILLER_173_240
*11014 FILLER_173_243
*11015 FILLER_173_246
*11016 FILLER_173_249
*11017 FILLER_173_252
*11018 FILLER_173_255
*11019 FILLER_173_258
*11020 FILLER_173_261
*11021 FILLER_173_264
*11022 FILLER_173_267
*11023 FILLER_173_27
*11024 FILLER_173_270
*11025 FILLER_173_273
*11026 FILLER_173_276
*11027 FILLER_173_279
*11028 FILLER_173_281
*11029 FILLER_173_284
*11030 FILLER_173_287
*11031 FILLER_173_290
*11032 FILLER_173_293
*11033 FILLER_173_296
*11034 FILLER_173_299
*11035 FILLER_173_3
*11036 FILLER_173_30
*11037 FILLER_173_302
*11038 FILLER_173_305
*11039 FILLER_173_308
*11040 FILLER_173_311
*11041 FILLER_173_314
*11042 FILLER_173_317
*11043 FILLER_173_320
*11044 FILLER_173_323
*11045 FILLER_173_326
*11046 FILLER_173_329
*11047 FILLER_173_33
*11048 FILLER_173_332
*11049 FILLER_173_335
*11050 FILLER_173_337
*11051 FILLER_173_340
*11052 FILLER_173_343
*11053 FILLER_173_346
*11054 FILLER_173_349
*11055 FILLER_173_352
*11056 FILLER_173_355
*11057 FILLER_173_358
*11058 FILLER_173_36
*11059 FILLER_173_361
*11060 FILLER_173_364
*11061 FILLER_173_367
*11062 FILLER_173_370
*11063 FILLER_173_373
*11064 FILLER_173_376
*11065 FILLER_173_379
*11066 FILLER_173_382
*11067 FILLER_173_385
*11068 FILLER_173_388
*11069 FILLER_173_39
*11070 FILLER_173_391
*11071 FILLER_173_393
*11072 FILLER_173_396
*11073 FILLER_173_399
*11074 FILLER_173_402
*11075 FILLER_173_405
*11076 FILLER_173_408
*11077 FILLER_173_411
*11078 FILLER_173_414
*11079 FILLER_173_417
*11080 FILLER_173_42
*11081 FILLER_173_420
*11082 FILLER_173_423
*11083 FILLER_173_426
*11084 FILLER_173_429
*11085 FILLER_173_432
*11086 FILLER_173_435
*11087 FILLER_173_438
*11088 FILLER_173_441
*11089 FILLER_173_444
*11090 FILLER_173_447
*11091 FILLER_173_449
*11092 FILLER_173_45
*11093 FILLER_173_452
*11094 FILLER_173_455
*11095 FILLER_173_458
*11096 FILLER_173_461
*11097 FILLER_173_464
*11098 FILLER_173_467
*11099 FILLER_173_470
*11100 FILLER_173_473
*11101 FILLER_173_476
*11102 FILLER_173_479
*11103 FILLER_173_48
*11104 FILLER_173_482
*11105 FILLER_173_485
*11106 FILLER_173_488
*11107 FILLER_173_491
*11108 FILLER_173_494
*11109 FILLER_173_497
*11110 FILLER_173_500
*11111 FILLER_173_503
*11112 FILLER_173_505
*11113 FILLER_173_508
*11114 FILLER_173_51
*11115 FILLER_173_511
*11116 FILLER_173_514
*11117 FILLER_173_517
*11118 FILLER_173_520
*11119 FILLER_173_523
*11120 FILLER_173_526
*11121 FILLER_173_529
*11122 FILLER_173_532
*11123 FILLER_173_535
*11124 FILLER_173_538
*11125 FILLER_173_54
*11126 FILLER_173_541
*11127 FILLER_173_544
*11128 FILLER_173_547
*11129 FILLER_173_550
*11130 FILLER_173_553
*11131 FILLER_173_556
*11132 FILLER_173_559
*11133 FILLER_173_561
*11134 FILLER_173_564
*11135 FILLER_173_567
*11136 FILLER_173_57
*11137 FILLER_173_570
*11138 FILLER_173_573
*11139 FILLER_173_576
*11140 FILLER_173_579
*11141 FILLER_173_582
*11142 FILLER_173_585
*11143 FILLER_173_588
*11144 FILLER_173_591
*11145 FILLER_173_594
*11146 FILLER_173_597
*11147 FILLER_173_6
*11148 FILLER_173_60
*11149 FILLER_173_600
*11150 FILLER_173_603
*11151 FILLER_173_606
*11152 FILLER_173_609
*11153 FILLER_173_612
*11154 FILLER_173_615
*11155 FILLER_173_617
*11156 FILLER_173_620
*11157 FILLER_173_623
*11158 FILLER_173_626
*11159 FILLER_173_629
*11160 FILLER_173_63
*11161 FILLER_173_632
*11162 FILLER_173_635
*11163 FILLER_173_638
*11164 FILLER_173_641
*11165 FILLER_173_644
*11166 FILLER_173_647
*11167 FILLER_173_650
*11168 FILLER_173_653
*11169 FILLER_173_656
*11170 FILLER_173_659
*11171 FILLER_173_66
*11172 FILLER_173_662
*11173 FILLER_173_665
*11174 FILLER_173_668
*11175 FILLER_173_671
*11176 FILLER_173_673
*11177 FILLER_173_676
*11178 FILLER_173_679
*11179 FILLER_173_682
*11180 FILLER_173_685
*11181 FILLER_173_688
*11182 FILLER_173_69
*11183 FILLER_173_691
*11184 FILLER_173_694
*11185 FILLER_173_697
*11186 FILLER_173_700
*11187 FILLER_173_703
*11188 FILLER_173_706
*11189 FILLER_173_709
*11190 FILLER_173_712
*11191 FILLER_173_715
*11192 FILLER_173_718
*11193 FILLER_173_72
*11194 FILLER_173_721
*11195 FILLER_173_724
*11196 FILLER_173_727
*11197 FILLER_173_729
*11198 FILLER_173_732
*11199 FILLER_173_735
*11200 FILLER_173_738
*11201 FILLER_173_741
*11202 FILLER_173_744
*11203 FILLER_173_747
*11204 FILLER_173_75
*11205 FILLER_173_750
*11206 FILLER_173_753
*11207 FILLER_173_756
*11208 FILLER_173_759
*11209 FILLER_173_762
*11210 FILLER_173_765
*11211 FILLER_173_768
*11212 FILLER_173_771
*11213 FILLER_173_774
*11214 FILLER_173_777
*11215 FILLER_173_78
*11216 FILLER_173_780
*11217 FILLER_173_783
*11218 FILLER_173_785
*11219 FILLER_173_788
*11220 FILLER_173_791
*11221 FILLER_173_794
*11222 FILLER_173_797
*11223 FILLER_173_800
*11224 FILLER_173_803
*11225 FILLER_173_806
*11226 FILLER_173_809
*11227 FILLER_173_81
*11228 FILLER_173_812
*11229 FILLER_173_815
*11230 FILLER_173_818
*11231 FILLER_173_821
*11232 FILLER_173_824
*11233 FILLER_173_827
*11234 FILLER_173_830
*11235 FILLER_173_833
*11236 FILLER_173_836
*11237 FILLER_173_839
*11238 FILLER_173_84
*11239 FILLER_173_841
*11240 FILLER_173_844
*11241 FILLER_173_847
*11242 FILLER_173_850
*11243 FILLER_173_853
*11244 FILLER_173_856
*11245 FILLER_173_859
*11246 FILLER_173_862
*11247 FILLER_173_865
*11248 FILLER_173_868
*11249 FILLER_173_87
*11250 FILLER_173_871
*11251 FILLER_173_874
*11252 FILLER_173_877
*11253 FILLER_173_880
*11254 FILLER_173_883
*11255 FILLER_173_886
*11256 FILLER_173_889
*11257 FILLER_173_892
*11258 FILLER_173_895
*11259 FILLER_173_897
*11260 FILLER_173_9
*11261 FILLER_173_90
*11262 FILLER_173_900
*11263 FILLER_173_903
*11264 FILLER_173_906
*11265 FILLER_173_909
*11266 FILLER_173_912
*11267 FILLER_173_915
*11268 FILLER_173_918
*11269 FILLER_173_921
*11270 FILLER_173_924
*11271 FILLER_173_927
*11272 FILLER_173_93
*11273 FILLER_173_930
*11274 FILLER_173_933
*11275 FILLER_173_936
*11276 FILLER_173_939
*11277 FILLER_173_942
*11278 FILLER_173_945
*11279 FILLER_173_948
*11280 FILLER_173_951
*11281 FILLER_173_953
*11282 FILLER_173_956
*11283 FILLER_173_959
*11284 FILLER_173_96
*11285 FILLER_173_962
*11286 FILLER_173_965
*11287 FILLER_173_968
*11288 FILLER_173_971
*11289 FILLER_173_974
*11290 FILLER_173_977
*11291 FILLER_173_980
*11292 FILLER_173_983
*11293 FILLER_173_986
*11294 FILLER_173_989
*11295 FILLER_173_99
*11296 FILLER_173_992
*11297 FILLER_173_995
*11298 FILLER_173_998
*11299 FILLER_174_100
*11300 FILLER_174_1002
*11301 FILLER_174_1005
*11302 FILLER_174_1008
*11303 FILLER_174_1011
*11304 FILLER_174_1014
*11305 FILLER_174_1017
*11306 FILLER_174_1020
*11307 FILLER_174_1023
*11308 FILLER_174_1026
*11309 FILLER_174_1029
*11310 FILLER_174_103
*11311 FILLER_174_1032
*11312 FILLER_174_1035
*11313 FILLER_174_1037
*11314 FILLER_174_1040
*11315 FILLER_174_1043
*11316 FILLER_174_1046
*11317 FILLER_174_1049
*11318 FILLER_174_1052
*11319 FILLER_174_1055
*11320 FILLER_174_1058
*11321 FILLER_174_106
*11322 FILLER_174_1061
*11323 FILLER_174_1064
*11324 FILLER_174_1067
*11325 FILLER_174_1070
*11326 FILLER_174_1073
*11327 FILLER_174_1076
*11328 FILLER_174_1079
*11329 FILLER_174_1082
*11330 FILLER_174_1085
*11331 FILLER_174_1088
*11332 FILLER_174_109
*11333 FILLER_174_1091
*11334 FILLER_174_1093
*11335 FILLER_174_1096
*11336 FILLER_174_1099
*11337 FILLER_174_1102
*11338 FILLER_174_1105
*11339 FILLER_174_1108
*11340 FILLER_174_1111
*11341 FILLER_174_1114
*11342 FILLER_174_1117
*11343 FILLER_174_112
*11344 FILLER_174_1120
*11345 FILLER_174_1123
*11346 FILLER_174_1126
*11347 FILLER_174_1129
*11348 FILLER_174_1132
*11349 FILLER_174_1135
*11350 FILLER_174_1138
*11351 FILLER_174_1141
*11352 FILLER_174_1144
*11353 FILLER_174_1147
*11354 FILLER_174_1149
*11355 FILLER_174_115
*11356 FILLER_174_1152
*11357 FILLER_174_1155
*11358 FILLER_174_1158
*11359 FILLER_174_1161
*11360 FILLER_174_1164
*11361 FILLER_174_1167
*11362 FILLER_174_1170
*11363 FILLER_174_1173
*11364 FILLER_174_1176
*11365 FILLER_174_1179
*11366 FILLER_174_118
*11367 FILLER_174_1182
*11368 FILLER_174_1185
*11369 FILLER_174_1188
*11370 FILLER_174_1191
*11371 FILLER_174_1194
*11372 FILLER_174_1197
*11373 FILLER_174_12
*11374 FILLER_174_1200
*11375 FILLER_174_1203
*11376 FILLER_174_1205
*11377 FILLER_174_1208
*11378 FILLER_174_121
*11379 FILLER_174_1211
*11380 FILLER_174_1214
*11381 FILLER_174_1217
*11382 FILLER_174_1220
*11383 FILLER_174_1223
*11384 FILLER_174_1226
*11385 FILLER_174_1229
*11386 FILLER_174_1232
*11387 FILLER_174_1235
*11388 FILLER_174_1238
*11389 FILLER_174_124
*11390 FILLER_174_1241
*11391 FILLER_174_1244
*11392 FILLER_174_1247
*11393 FILLER_174_1250
*11394 FILLER_174_1253
*11395 FILLER_174_1256
*11396 FILLER_174_1259
*11397 FILLER_174_1261
*11398 FILLER_174_1264
*11399 FILLER_174_1267
*11400 FILLER_174_127
*11401 FILLER_174_1270
*11402 FILLER_174_1273
*11403 FILLER_174_1276
*11404 FILLER_174_1279
*11405 FILLER_174_1282
*11406 FILLER_174_1285
*11407 FILLER_174_1288
*11408 FILLER_174_1291
*11409 FILLER_174_1294
*11410 FILLER_174_1297
*11411 FILLER_174_130
*11412 FILLER_174_1300
*11413 FILLER_174_1303
*11414 FILLER_174_1306
*11415 FILLER_174_1309
*11416 FILLER_174_1312
*11417 FILLER_174_1315
*11418 FILLER_174_1317
*11419 FILLER_174_1320
*11420 FILLER_174_1323
*11421 FILLER_174_1326
*11422 FILLER_174_1329
*11423 FILLER_174_133
*11424 FILLER_174_1332
*11425 FILLER_174_1335
*11426 FILLER_174_1338
*11427 FILLER_174_1341
*11428 FILLER_174_1344
*11429 FILLER_174_1347
*11430 FILLER_174_1350
*11431 FILLER_174_1353
*11432 FILLER_174_1356
*11433 FILLER_174_1359
*11434 FILLER_174_136
*11435 FILLER_174_1362
*11436 FILLER_174_139
*11437 FILLER_174_141
*11438 FILLER_174_144
*11439 FILLER_174_147
*11440 FILLER_174_15
*11441 FILLER_174_150
*11442 FILLER_174_153
*11443 FILLER_174_156
*11444 FILLER_174_159
*11445 FILLER_174_162
*11446 FILLER_174_165
*11447 FILLER_174_168
*11448 FILLER_174_171
*11449 FILLER_174_174
*11450 FILLER_174_177
*11451 FILLER_174_18
*11452 FILLER_174_180
*11453 FILLER_174_183
*11454 FILLER_174_186
*11455 FILLER_174_189
*11456 FILLER_174_192
*11457 FILLER_174_195
*11458 FILLER_174_197
*11459 FILLER_174_200
*11460 FILLER_174_203
*11461 FILLER_174_206
*11462 FILLER_174_209
*11463 FILLER_174_21
*11464 FILLER_174_212
*11465 FILLER_174_215
*11466 FILLER_174_218
*11467 FILLER_174_221
*11468 FILLER_174_224
*11469 FILLER_174_227
*11470 FILLER_174_230
*11471 FILLER_174_233
*11472 FILLER_174_236
*11473 FILLER_174_239
*11474 FILLER_174_24
*11475 FILLER_174_242
*11476 FILLER_174_245
*11477 FILLER_174_248
*11478 FILLER_174_251
*11479 FILLER_174_253
*11480 FILLER_174_256
*11481 FILLER_174_259
*11482 FILLER_174_262
*11483 FILLER_174_265
*11484 FILLER_174_268
*11485 FILLER_174_27
*11486 FILLER_174_271
*11487 FILLER_174_274
*11488 FILLER_174_277
*11489 FILLER_174_280
*11490 FILLER_174_283
*11491 FILLER_174_286
*11492 FILLER_174_289
*11493 FILLER_174_29
*11494 FILLER_174_292
*11495 FILLER_174_295
*11496 FILLER_174_298
*11497 FILLER_174_3
*11498 FILLER_174_301
*11499 FILLER_174_304
*11500 FILLER_174_307
*11501 FILLER_174_309
*11502 FILLER_174_312
*11503 FILLER_174_315
*11504 FILLER_174_318
*11505 FILLER_174_32
*11506 FILLER_174_321
*11507 FILLER_174_324
*11508 FILLER_174_327
*11509 FILLER_174_330
*11510 FILLER_174_333
*11511 FILLER_174_336
*11512 FILLER_174_339
*11513 FILLER_174_342
*11514 FILLER_174_345
*11515 FILLER_174_348
*11516 FILLER_174_35
*11517 FILLER_174_351
*11518 FILLER_174_354
*11519 FILLER_174_357
*11520 FILLER_174_360
*11521 FILLER_174_363
*11522 FILLER_174_365
*11523 FILLER_174_368
*11524 FILLER_174_371
*11525 FILLER_174_374
*11526 FILLER_174_377
*11527 FILLER_174_38
*11528 FILLER_174_380
*11529 FILLER_174_383
*11530 FILLER_174_386
*11531 FILLER_174_389
*11532 FILLER_174_392
*11533 FILLER_174_395
*11534 FILLER_174_398
*11535 FILLER_174_401
*11536 FILLER_174_404
*11537 FILLER_174_407
*11538 FILLER_174_41
*11539 FILLER_174_410
*11540 FILLER_174_413
*11541 FILLER_174_416
*11542 FILLER_174_419
*11543 FILLER_174_421
*11544 FILLER_174_424
*11545 FILLER_174_427
*11546 FILLER_174_430
*11547 FILLER_174_433
*11548 FILLER_174_436
*11549 FILLER_174_439
*11550 FILLER_174_44
*11551 FILLER_174_442
*11552 FILLER_174_445
*11553 FILLER_174_448
*11554 FILLER_174_451
*11555 FILLER_174_454
*11556 FILLER_174_457
*11557 FILLER_174_460
*11558 FILLER_174_463
*11559 FILLER_174_466
*11560 FILLER_174_469
*11561 FILLER_174_47
*11562 FILLER_174_472
*11563 FILLER_174_475
*11564 FILLER_174_477
*11565 FILLER_174_480
*11566 FILLER_174_483
*11567 FILLER_174_486
*11568 FILLER_174_489
*11569 FILLER_174_492
*11570 FILLER_174_495
*11571 FILLER_174_498
*11572 FILLER_174_50
*11573 FILLER_174_501
*11574 FILLER_174_504
*11575 FILLER_174_507
*11576 FILLER_174_510
*11577 FILLER_174_513
*11578 FILLER_174_516
*11579 FILLER_174_519
*11580 FILLER_174_522
*11581 FILLER_174_525
*11582 FILLER_174_528
*11583 FILLER_174_53
*11584 FILLER_174_531
*11585 FILLER_174_533
*11586 FILLER_174_536
*11587 FILLER_174_539
*11588 FILLER_174_542
*11589 FILLER_174_545
*11590 FILLER_174_548
*11591 FILLER_174_551
*11592 FILLER_174_554
*11593 FILLER_174_557
*11594 FILLER_174_56
*11595 FILLER_174_560
*11596 FILLER_174_563
*11597 FILLER_174_566
*11598 FILLER_174_569
*11599 FILLER_174_572
*11600 FILLER_174_575
*11601 FILLER_174_578
*11602 FILLER_174_581
*11603 FILLER_174_584
*11604 FILLER_174_587
*11605 FILLER_174_589
*11606 FILLER_174_59
*11607 FILLER_174_592
*11608 FILLER_174_595
*11609 FILLER_174_598
*11610 FILLER_174_6
*11611 FILLER_174_601
*11612 FILLER_174_604
*11613 FILLER_174_607
*11614 FILLER_174_610
*11615 FILLER_174_613
*11616 FILLER_174_616
*11617 FILLER_174_619
*11618 FILLER_174_62
*11619 FILLER_174_622
*11620 FILLER_174_625
*11621 FILLER_174_628
*11622 FILLER_174_631
*11623 FILLER_174_634
*11624 FILLER_174_637
*11625 FILLER_174_640
*11626 FILLER_174_643
*11627 FILLER_174_645
*11628 FILLER_174_648
*11629 FILLER_174_65
*11630 FILLER_174_651
*11631 FILLER_174_654
*11632 FILLER_174_657
*11633 FILLER_174_660
*11634 FILLER_174_663
*11635 FILLER_174_666
*11636 FILLER_174_669
*11637 FILLER_174_672
*11638 FILLER_174_675
*11639 FILLER_174_678
*11640 FILLER_174_68
*11641 FILLER_174_681
*11642 FILLER_174_684
*11643 FILLER_174_687
*11644 FILLER_174_690
*11645 FILLER_174_693
*11646 FILLER_174_696
*11647 FILLER_174_699
*11648 FILLER_174_701
*11649 FILLER_174_704
*11650 FILLER_174_707
*11651 FILLER_174_71
*11652 FILLER_174_710
*11653 FILLER_174_713
*11654 FILLER_174_716
*11655 FILLER_174_719
*11656 FILLER_174_722
*11657 FILLER_174_725
*11658 FILLER_174_728
*11659 FILLER_174_731
*11660 FILLER_174_734
*11661 FILLER_174_737
*11662 FILLER_174_74
*11663 FILLER_174_740
*11664 FILLER_174_743
*11665 FILLER_174_746
*11666 FILLER_174_749
*11667 FILLER_174_752
*11668 FILLER_174_755
*11669 FILLER_174_757
*11670 FILLER_174_760
*11671 FILLER_174_763
*11672 FILLER_174_766
*11673 FILLER_174_769
*11674 FILLER_174_77
*11675 FILLER_174_772
*11676 FILLER_174_775
*11677 FILLER_174_778
*11678 FILLER_174_781
*11679 FILLER_174_784
*11680 FILLER_174_787
*11681 FILLER_174_790
*11682 FILLER_174_793
*11683 FILLER_174_796
*11684 FILLER_174_799
*11685 FILLER_174_80
*11686 FILLER_174_802
*11687 FILLER_174_805
*11688 FILLER_174_808
*11689 FILLER_174_811
*11690 FILLER_174_813
*11691 FILLER_174_816
*11692 FILLER_174_819
*11693 FILLER_174_822
*11694 FILLER_174_825
*11695 FILLER_174_828
*11696 FILLER_174_83
*11697 FILLER_174_831
*11698 FILLER_174_834
*11699 FILLER_174_837
*11700 FILLER_174_840
*11701 FILLER_174_843
*11702 FILLER_174_846
*11703 FILLER_174_849
*11704 FILLER_174_85
*11705 FILLER_174_852
*11706 FILLER_174_855
*11707 FILLER_174_858
*11708 FILLER_174_861
*11709 FILLER_174_864
*11710 FILLER_174_867
*11711 FILLER_174_869
*11712 FILLER_174_872
*11713 FILLER_174_875
*11714 FILLER_174_878
*11715 FILLER_174_88
*11716 FILLER_174_881
*11717 FILLER_174_884
*11718 FILLER_174_887
*11719 FILLER_174_890
*11720 FILLER_174_893
*11721 FILLER_174_896
*11722 FILLER_174_899
*11723 FILLER_174_9
*11724 FILLER_174_902
*11725 FILLER_174_905
*11726 FILLER_174_908
*11727 FILLER_174_91
*11728 FILLER_174_911
*11729 FILLER_174_914
*11730 FILLER_174_917
*11731 FILLER_174_920
*11732 FILLER_174_923
*11733 FILLER_174_925
*11734 FILLER_174_928
*11735 FILLER_174_931
*11736 FILLER_174_934
*11737 FILLER_174_937
*11738 FILLER_174_94
*11739 FILLER_174_940
*11740 FILLER_174_943
*11741 FILLER_174_946
*11742 FILLER_174_949
*11743 FILLER_174_952
*11744 FILLER_174_955
*11745 FILLER_174_958
*11746 FILLER_174_961
*11747 FILLER_174_964
*11748 FILLER_174_967
*11749 FILLER_174_97
*11750 FILLER_174_970
*11751 FILLER_174_973
*11752 FILLER_174_976
*11753 FILLER_174_979
*11754 FILLER_174_981
*11755 FILLER_174_984
*11756 FILLER_174_987
*11757 FILLER_174_990
*11758 FILLER_174_993
*11759 FILLER_174_996
*11760 FILLER_174_999
*11761 FILLER_175_1001
*11762 FILLER_175_1004
*11763 FILLER_175_1007
*11764 FILLER_175_1009
*11765 FILLER_175_1012
*11766 FILLER_175_1015
*11767 FILLER_175_1018
*11768 FILLER_175_102
*11769 FILLER_175_1021
*11770 FILLER_175_1024
*11771 FILLER_175_1027
*11772 FILLER_175_1030
*11773 FILLER_175_1033
*11774 FILLER_175_1036
*11775 FILLER_175_1039
*11776 FILLER_175_1042
*11777 FILLER_175_1045
*11778 FILLER_175_1048
*11779 FILLER_175_105
*11780 FILLER_175_1051
*11781 FILLER_175_1054
*11782 FILLER_175_1057
*11783 FILLER_175_1060
*11784 FILLER_175_1063
*11785 FILLER_175_1065
*11786 FILLER_175_1068
*11787 FILLER_175_1071
*11788 FILLER_175_1074
*11789 FILLER_175_1077
*11790 FILLER_175_108
*11791 FILLER_175_1080
*11792 FILLER_175_1083
*11793 FILLER_175_1086
*11794 FILLER_175_1089
*11795 FILLER_175_1092
*11796 FILLER_175_1095
*11797 FILLER_175_1098
*11798 FILLER_175_1101
*11799 FILLER_175_1104
*11800 FILLER_175_1107
*11801 FILLER_175_111
*11802 FILLER_175_1110
*11803 FILLER_175_1113
*11804 FILLER_175_1116
*11805 FILLER_175_1119
*11806 FILLER_175_1121
*11807 FILLER_175_1124
*11808 FILLER_175_1127
*11809 FILLER_175_113
*11810 FILLER_175_1130
*11811 FILLER_175_1133
*11812 FILLER_175_1136
*11813 FILLER_175_1139
*11814 FILLER_175_1142
*11815 FILLER_175_1145
*11816 FILLER_175_1148
*11817 FILLER_175_1151
*11818 FILLER_175_1154
*11819 FILLER_175_1157
*11820 FILLER_175_116
*11821 FILLER_175_1160
*11822 FILLER_175_1163
*11823 FILLER_175_1166
*11824 FILLER_175_1169
*11825 FILLER_175_1172
*11826 FILLER_175_1175
*11827 FILLER_175_1177
*11828 FILLER_175_1180
*11829 FILLER_175_1183
*11830 FILLER_175_1186
*11831 FILLER_175_1189
*11832 FILLER_175_119
*11833 FILLER_175_1192
*11834 FILLER_175_1195
*11835 FILLER_175_1198
*11836 FILLER_175_12
*11837 FILLER_175_1201
*11838 FILLER_175_1204
*11839 FILLER_175_1207
*11840 FILLER_175_1210
*11841 FILLER_175_1213
*11842 FILLER_175_1216
*11843 FILLER_175_1219
*11844 FILLER_175_122
*11845 FILLER_175_1222
*11846 FILLER_175_1225
*11847 FILLER_175_1228
*11848 FILLER_175_1231
*11849 FILLER_175_1233
*11850 FILLER_175_1236
*11851 FILLER_175_1239
*11852 FILLER_175_1242
*11853 FILLER_175_1245
*11854 FILLER_175_1248
*11855 FILLER_175_125
*11856 FILLER_175_1251
*11857 FILLER_175_1254
*11858 FILLER_175_1257
*11859 FILLER_175_1260
*11860 FILLER_175_1263
*11861 FILLER_175_1266
*11862 FILLER_175_1269
*11863 FILLER_175_1272
*11864 FILLER_175_1275
*11865 FILLER_175_1278
*11866 FILLER_175_128
*11867 FILLER_175_1281
*11868 FILLER_175_1284
*11869 FILLER_175_1287
*11870 FILLER_175_1289
*11871 FILLER_175_1292
*11872 FILLER_175_1295
*11873 FILLER_175_1298
*11874 FILLER_175_1301
*11875 FILLER_175_1304
*11876 FILLER_175_1307
*11877 FILLER_175_131
*11878 FILLER_175_1310
*11879 FILLER_175_1313
*11880 FILLER_175_1316
*11881 FILLER_175_1319
*11882 FILLER_175_1322
*11883 FILLER_175_1325
*11884 FILLER_175_1328
*11885 FILLER_175_1331
*11886 FILLER_175_1334
*11887 FILLER_175_1337
*11888 FILLER_175_134
*11889 FILLER_175_1340
*11890 FILLER_175_1343
*11891 FILLER_175_1345
*11892 FILLER_175_1348
*11893 FILLER_175_1351
*11894 FILLER_175_1354
*11895 FILLER_175_1357
*11896 FILLER_175_1360
*11897 FILLER_175_1363
*11898 FILLER_175_137
*11899 FILLER_175_140
*11900 FILLER_175_143
*11901 FILLER_175_146
*11902 FILLER_175_149
*11903 FILLER_175_15
*11904 FILLER_175_152
*11905 FILLER_175_155
*11906 FILLER_175_158
*11907 FILLER_175_161
*11908 FILLER_175_164
*11909 FILLER_175_167
*11910 FILLER_175_169
*11911 FILLER_175_172
*11912 FILLER_175_175
*11913 FILLER_175_178
*11914 FILLER_175_18
*11915 FILLER_175_181
*11916 FILLER_175_184
*11917 FILLER_175_187
*11918 FILLER_175_190
*11919 FILLER_175_193
*11920 FILLER_175_196
*11921 FILLER_175_199
*11922 FILLER_175_202
*11923 FILLER_175_205
*11924 FILLER_175_208
*11925 FILLER_175_21
*11926 FILLER_175_211
*11927 FILLER_175_214
*11928 FILLER_175_217
*11929 FILLER_175_220
*11930 FILLER_175_223
*11931 FILLER_175_225
*11932 FILLER_175_228
*11933 FILLER_175_231
*11934 FILLER_175_234
*11935 FILLER_175_237
*11936 FILLER_175_24
*11937 FILLER_175_240
*11938 FILLER_175_243
*11939 FILLER_175_246
*11940 FILLER_175_249
*11941 FILLER_175_252
*11942 FILLER_175_255
*11943 FILLER_175_258
*11944 FILLER_175_261
*11945 FILLER_175_264
*11946 FILLER_175_267
*11947 FILLER_175_27
*11948 FILLER_175_270
*11949 FILLER_175_273
*11950 FILLER_175_276
*11951 FILLER_175_279
*11952 FILLER_175_281
*11953 FILLER_175_284
*11954 FILLER_175_287
*11955 FILLER_175_290
*11956 FILLER_175_293
*11957 FILLER_175_296
*11958 FILLER_175_299
*11959 FILLER_175_3
*11960 FILLER_175_30
*11961 FILLER_175_302
*11962 FILLER_175_305
*11963 FILLER_175_308
*11964 FILLER_175_311
*11965 FILLER_175_314
*11966 FILLER_175_317
*11967 FILLER_175_320
*11968 FILLER_175_323
*11969 FILLER_175_326
*11970 FILLER_175_329
*11971 FILLER_175_33
*11972 FILLER_175_332
*11973 FILLER_175_335
*11974 FILLER_175_337
*11975 FILLER_175_340
*11976 FILLER_175_343
*11977 FILLER_175_346
*11978 FILLER_175_349
*11979 FILLER_175_352
*11980 FILLER_175_355
*11981 FILLER_175_358
*11982 FILLER_175_36
*11983 FILLER_175_361
*11984 FILLER_175_364
*11985 FILLER_175_367
*11986 FILLER_175_370
*11987 FILLER_175_373
*11988 FILLER_175_376
*11989 FILLER_175_379
*11990 FILLER_175_382
*11991 FILLER_175_385
*11992 FILLER_175_388
*11993 FILLER_175_39
*11994 FILLER_175_391
*11995 FILLER_175_393
*11996 FILLER_175_396
*11997 FILLER_175_399
*11998 FILLER_175_402
*11999 FILLER_175_405
*12000 FILLER_175_408
*12001 FILLER_175_411
*12002 FILLER_175_414
*12003 FILLER_175_417
*12004 FILLER_175_42
*12005 FILLER_175_420
*12006 FILLER_175_423
*12007 FILLER_175_426
*12008 FILLER_175_429
*12009 FILLER_175_432
*12010 FILLER_175_435
*12011 FILLER_175_438
*12012 FILLER_175_441
*12013 FILLER_175_444
*12014 FILLER_175_447
*12015 FILLER_175_449
*12016 FILLER_175_45
*12017 FILLER_175_452
*12018 FILLER_175_455
*12019 FILLER_175_458
*12020 FILLER_175_461
*12021 FILLER_175_464
*12022 FILLER_175_467
*12023 FILLER_175_470
*12024 FILLER_175_473
*12025 FILLER_175_476
*12026 FILLER_175_479
*12027 FILLER_175_48
*12028 FILLER_175_482
*12029 FILLER_175_485
*12030 FILLER_175_488
*12031 FILLER_175_491
*12032 FILLER_175_494
*12033 FILLER_175_497
*12034 FILLER_175_500
*12035 FILLER_175_503
*12036 FILLER_175_505
*12037 FILLER_175_508
*12038 FILLER_175_51
*12039 FILLER_175_511
*12040 FILLER_175_514
*12041 FILLER_175_517
*12042 FILLER_175_520
*12043 FILLER_175_523
*12044 FILLER_175_526
*12045 FILLER_175_529
*12046 FILLER_175_532
*12047 FILLER_175_535
*12048 FILLER_175_538
*12049 FILLER_175_54
*12050 FILLER_175_541
*12051 FILLER_175_544
*12052 FILLER_175_547
*12053 FILLER_175_550
*12054 FILLER_175_553
*12055 FILLER_175_556
*12056 FILLER_175_559
*12057 FILLER_175_561
*12058 FILLER_175_564
*12059 FILLER_175_567
*12060 FILLER_175_57
*12061 FILLER_175_570
*12062 FILLER_175_573
*12063 FILLER_175_576
*12064 FILLER_175_579
*12065 FILLER_175_582
*12066 FILLER_175_585
*12067 FILLER_175_588
*12068 FILLER_175_591
*12069 FILLER_175_594
*12070 FILLER_175_597
*12071 FILLER_175_6
*12072 FILLER_175_60
*12073 FILLER_175_600
*12074 FILLER_175_603
*12075 FILLER_175_606
*12076 FILLER_175_609
*12077 FILLER_175_612
*12078 FILLER_175_615
*12079 FILLER_175_617
*12080 FILLER_175_620
*12081 FILLER_175_623
*12082 FILLER_175_626
*12083 FILLER_175_629
*12084 FILLER_175_63
*12085 FILLER_175_632
*12086 FILLER_175_635
*12087 FILLER_175_638
*12088 FILLER_175_641
*12089 FILLER_175_644
*12090 FILLER_175_647
*12091 FILLER_175_650
*12092 FILLER_175_653
*12093 FILLER_175_656
*12094 FILLER_175_659
*12095 FILLER_175_66
*12096 FILLER_175_662
*12097 FILLER_175_665
*12098 FILLER_175_668
*12099 FILLER_175_671
*12100 FILLER_175_673
*12101 FILLER_175_676
*12102 FILLER_175_679
*12103 FILLER_175_682
*12104 FILLER_175_685
*12105 FILLER_175_688
*12106 FILLER_175_69
*12107 FILLER_175_691
*12108 FILLER_175_694
*12109 FILLER_175_697
*12110 FILLER_175_700
*12111 FILLER_175_703
*12112 FILLER_175_706
*12113 FILLER_175_709
*12114 FILLER_175_712
*12115 FILLER_175_715
*12116 FILLER_175_718
*12117 FILLER_175_72
*12118 FILLER_175_721
*12119 FILLER_175_724
*12120 FILLER_175_727
*12121 FILLER_175_729
*12122 FILLER_175_732
*12123 FILLER_175_735
*12124 FILLER_175_738
*12125 FILLER_175_741
*12126 FILLER_175_744
*12127 FILLER_175_747
*12128 FILLER_175_75
*12129 FILLER_175_750
*12130 FILLER_175_753
*12131 FILLER_175_756
*12132 FILLER_175_759
*12133 FILLER_175_762
*12134 FILLER_175_765
*12135 FILLER_175_768
*12136 FILLER_175_771
*12137 FILLER_175_774
*12138 FILLER_175_777
*12139 FILLER_175_78
*12140 FILLER_175_780
*12141 FILLER_175_783
*12142 FILLER_175_785
*12143 FILLER_175_788
*12144 FILLER_175_791
*12145 FILLER_175_794
*12146 FILLER_175_797
*12147 FILLER_175_800
*12148 FILLER_175_803
*12149 FILLER_175_806
*12150 FILLER_175_809
*12151 FILLER_175_81
*12152 FILLER_175_812
*12153 FILLER_175_815
*12154 FILLER_175_818
*12155 FILLER_175_821
*12156 FILLER_175_824
*12157 FILLER_175_827
*12158 FILLER_175_830
*12159 FILLER_175_833
*12160 FILLER_175_836
*12161 FILLER_175_839
*12162 FILLER_175_84
*12163 FILLER_175_841
*12164 FILLER_175_844
*12165 FILLER_175_847
*12166 FILLER_175_850
*12167 FILLER_175_853
*12168 FILLER_175_856
*12169 FILLER_175_859
*12170 FILLER_175_862
*12171 FILLER_175_865
*12172 FILLER_175_868
*12173 FILLER_175_87
*12174 FILLER_175_871
*12175 FILLER_175_874
*12176 FILLER_175_877
*12177 FILLER_175_880
*12178 FILLER_175_883
*12179 FILLER_175_886
*12180 FILLER_175_889
*12181 FILLER_175_892
*12182 FILLER_175_895
*12183 FILLER_175_897
*12184 FILLER_175_9
*12185 FILLER_175_90
*12186 FILLER_175_900
*12187 FILLER_175_903
*12188 FILLER_175_906
*12189 FILLER_175_909
*12190 FILLER_175_912
*12191 FILLER_175_915
*12192 FILLER_175_918
*12193 FILLER_175_921
*12194 FILLER_175_924
*12195 FILLER_175_927
*12196 FILLER_175_93
*12197 FILLER_175_930
*12198 FILLER_175_933
*12199 FILLER_175_936
*12200 FILLER_175_939
*12201 FILLER_175_942
*12202 FILLER_175_945
*12203 FILLER_175_948
*12204 FILLER_175_951
*12205 FILLER_175_953
*12206 FILLER_175_956
*12207 FILLER_175_959
*12208 FILLER_175_96
*12209 FILLER_175_962
*12210 FILLER_175_965
*12211 FILLER_175_968
*12212 FILLER_175_971
*12213 FILLER_175_974
*12214 FILLER_175_977
*12215 FILLER_175_980
*12216 FILLER_175_983
*12217 FILLER_175_986
*12218 FILLER_175_989
*12219 FILLER_175_99
*12220 FILLER_175_992
*12221 FILLER_175_995
*12222 FILLER_175_998
*12223 FILLER_176_100
*12224 FILLER_176_1002
*12225 FILLER_176_1005
*12226 FILLER_176_1008
*12227 FILLER_176_1011
*12228 FILLER_176_1014
*12229 FILLER_176_1017
*12230 FILLER_176_1020
*12231 FILLER_176_1023
*12232 FILLER_176_1026
*12233 FILLER_176_1029
*12234 FILLER_176_103
*12235 FILLER_176_1032
*12236 FILLER_176_1035
*12237 FILLER_176_1037
*12238 FILLER_176_1040
*12239 FILLER_176_1043
*12240 FILLER_176_1046
*12241 FILLER_176_1049
*12242 FILLER_176_1052
*12243 FILLER_176_1055
*12244 FILLER_176_1058
*12245 FILLER_176_106
*12246 FILLER_176_1061
*12247 FILLER_176_1064
*12248 FILLER_176_1067
*12249 FILLER_176_1070
*12250 FILLER_176_1073
*12251 FILLER_176_1076
*12252 FILLER_176_1079
*12253 FILLER_176_1082
*12254 FILLER_176_1085
*12255 FILLER_176_1088
*12256 FILLER_176_109
*12257 FILLER_176_1091
*12258 FILLER_176_1093
*12259 FILLER_176_1096
*12260 FILLER_176_1099
*12261 FILLER_176_1102
*12262 FILLER_176_1105
*12263 FILLER_176_1108
*12264 FILLER_176_1111
*12265 FILLER_176_1114
*12266 FILLER_176_1117
*12267 FILLER_176_112
*12268 FILLER_176_1120
*12269 FILLER_176_1123
*12270 FILLER_176_1126
*12271 FILLER_176_1129
*12272 FILLER_176_1132
*12273 FILLER_176_1135
*12274 FILLER_176_1138
*12275 FILLER_176_1141
*12276 FILLER_176_1144
*12277 FILLER_176_1147
*12278 FILLER_176_1149
*12279 FILLER_176_115
*12280 FILLER_176_1152
*12281 FILLER_176_1155
*12282 FILLER_176_1158
*12283 FILLER_176_1161
*12284 FILLER_176_1164
*12285 FILLER_176_1167
*12286 FILLER_176_1170
*12287 FILLER_176_1173
*12288 FILLER_176_1176
*12289 FILLER_176_1179
*12290 FILLER_176_118
*12291 FILLER_176_1182
*12292 FILLER_176_1185
*12293 FILLER_176_1188
*12294 FILLER_176_1191
*12295 FILLER_176_1194
*12296 FILLER_176_1197
*12297 FILLER_176_12
*12298 FILLER_176_1200
*12299 FILLER_176_1203
*12300 FILLER_176_1205
*12301 FILLER_176_1208
*12302 FILLER_176_121
*12303 FILLER_176_1211
*12304 FILLER_176_1214
*12305 FILLER_176_1217
*12306 FILLER_176_1220
*12307 FILLER_176_1223
*12308 FILLER_176_1226
*12309 FILLER_176_1229
*12310 FILLER_176_1232
*12311 FILLER_176_1235
*12312 FILLER_176_1238
*12313 FILLER_176_124
*12314 FILLER_176_1241
*12315 FILLER_176_1244
*12316 FILLER_176_1247
*12317 FILLER_176_1250
*12318 FILLER_176_1253
*12319 FILLER_176_1256
*12320 FILLER_176_1259
*12321 FILLER_176_1261
*12322 FILLER_176_1264
*12323 FILLER_176_1267
*12324 FILLER_176_127
*12325 FILLER_176_1270
*12326 FILLER_176_1273
*12327 FILLER_176_1276
*12328 FILLER_176_1279
*12329 FILLER_176_1282
*12330 FILLER_176_1285
*12331 FILLER_176_1288
*12332 FILLER_176_1291
*12333 FILLER_176_1294
*12334 FILLER_176_1297
*12335 FILLER_176_130
*12336 FILLER_176_1300
*12337 FILLER_176_1303
*12338 FILLER_176_1306
*12339 FILLER_176_1309
*12340 FILLER_176_1312
*12341 FILLER_176_1315
*12342 FILLER_176_1317
*12343 FILLER_176_1320
*12344 FILLER_176_1323
*12345 FILLER_176_1326
*12346 FILLER_176_1329
*12347 FILLER_176_133
*12348 FILLER_176_1332
*12349 FILLER_176_1335
*12350 FILLER_176_1338
*12351 FILLER_176_1341
*12352 FILLER_176_1344
*12353 FILLER_176_1347
*12354 FILLER_176_1350
*12355 FILLER_176_1353
*12356 FILLER_176_1356
*12357 FILLER_176_1359
*12358 FILLER_176_136
*12359 FILLER_176_1362
*12360 FILLER_176_139
*12361 FILLER_176_141
*12362 FILLER_176_144
*12363 FILLER_176_147
*12364 FILLER_176_15
*12365 FILLER_176_150
*12366 FILLER_176_153
*12367 FILLER_176_156
*12368 FILLER_176_159
*12369 FILLER_176_162
*12370 FILLER_176_165
*12371 FILLER_176_168
*12372 FILLER_176_171
*12373 FILLER_176_174
*12374 FILLER_176_177
*12375 FILLER_176_18
*12376 FILLER_176_180
*12377 FILLER_176_183
*12378 FILLER_176_186
*12379 FILLER_176_189
*12380 FILLER_176_192
*12381 FILLER_176_195
*12382 FILLER_176_197
*12383 FILLER_176_200
*12384 FILLER_176_203
*12385 FILLER_176_206
*12386 FILLER_176_209
*12387 FILLER_176_21
*12388 FILLER_176_212
*12389 FILLER_176_215
*12390 FILLER_176_218
*12391 FILLER_176_221
*12392 FILLER_176_224
*12393 FILLER_176_227
*12394 FILLER_176_230
*12395 FILLER_176_233
*12396 FILLER_176_236
*12397 FILLER_176_239
*12398 FILLER_176_24
*12399 FILLER_176_242
*12400 FILLER_176_245
*12401 FILLER_176_248
*12402 FILLER_176_251
*12403 FILLER_176_253
*12404 FILLER_176_256
*12405 FILLER_176_259
*12406 FILLER_176_262
*12407 FILLER_176_265
*12408 FILLER_176_268
*12409 FILLER_176_27
*12410 FILLER_176_271
*12411 FILLER_176_274
*12412 FILLER_176_277
*12413 FILLER_176_280
*12414 FILLER_176_283
*12415 FILLER_176_286
*12416 FILLER_176_289
*12417 FILLER_176_29
*12418 FILLER_176_292
*12419 FILLER_176_295
*12420 FILLER_176_298
*12421 FILLER_176_3
*12422 FILLER_176_301
*12423 FILLER_176_304
*12424 FILLER_176_307
*12425 FILLER_176_309
*12426 FILLER_176_312
*12427 FILLER_176_315
*12428 FILLER_176_318
*12429 FILLER_176_32
*12430 FILLER_176_321
*12431 FILLER_176_324
*12432 FILLER_176_327
*12433 FILLER_176_330
*12434 FILLER_176_333
*12435 FILLER_176_336
*12436 FILLER_176_339
*12437 FILLER_176_342
*12438 FILLER_176_345
*12439 FILLER_176_348
*12440 FILLER_176_35
*12441 FILLER_176_351
*12442 FILLER_176_354
*12443 FILLER_176_357
*12444 FILLER_176_360
*12445 FILLER_176_363
*12446 FILLER_176_365
*12447 FILLER_176_368
*12448 FILLER_176_371
*12449 FILLER_176_374
*12450 FILLER_176_377
*12451 FILLER_176_38
*12452 FILLER_176_380
*12453 FILLER_176_383
*12454 FILLER_176_386
*12455 FILLER_176_389
*12456 FILLER_176_392
*12457 FILLER_176_395
*12458 FILLER_176_398
*12459 FILLER_176_401
*12460 FILLER_176_404
*12461 FILLER_176_407
*12462 FILLER_176_41
*12463 FILLER_176_410
*12464 FILLER_176_413
*12465 FILLER_176_416
*12466 FILLER_176_419
*12467 FILLER_176_421
*12468 FILLER_176_424
*12469 FILLER_176_427
*12470 FILLER_176_430
*12471 FILLER_176_433
*12472 FILLER_176_436
*12473 FILLER_176_439
*12474 FILLER_176_44
*12475 FILLER_176_442
*12476 FILLER_176_445
*12477 FILLER_176_448
*12478 FILLER_176_451
*12479 FILLER_176_454
*12480 FILLER_176_457
*12481 FILLER_176_460
*12482 FILLER_176_463
*12483 FILLER_176_466
*12484 FILLER_176_469
*12485 FILLER_176_47
*12486 FILLER_176_472
*12487 FILLER_176_475
*12488 FILLER_176_477
*12489 FILLER_176_480
*12490 FILLER_176_483
*12491 FILLER_176_486
*12492 FILLER_176_489
*12493 FILLER_176_492
*12494 FILLER_176_495
*12495 FILLER_176_498
*12496 FILLER_176_50
*12497 FILLER_176_501
*12498 FILLER_176_504
*12499 FILLER_176_507
*12500 FILLER_176_510
*12501 FILLER_176_513
*12502 FILLER_176_516
*12503 FILLER_176_519
*12504 FILLER_176_522
*12505 FILLER_176_525
*12506 FILLER_176_528
*12507 FILLER_176_53
*12508 FILLER_176_531
*12509 FILLER_176_533
*12510 FILLER_176_536
*12511 FILLER_176_539
*12512 FILLER_176_542
*12513 FILLER_176_545
*12514 FILLER_176_548
*12515 FILLER_176_551
*12516 FILLER_176_554
*12517 FILLER_176_557
*12518 FILLER_176_56
*12519 FILLER_176_560
*12520 FILLER_176_563
*12521 FILLER_176_566
*12522 FILLER_176_569
*12523 FILLER_176_572
*12524 FILLER_176_575
*12525 FILLER_176_578
*12526 FILLER_176_581
*12527 FILLER_176_584
*12528 FILLER_176_587
*12529 FILLER_176_589
*12530 FILLER_176_59
*12531 FILLER_176_592
*12532 FILLER_176_595
*12533 FILLER_176_598
*12534 FILLER_176_6
*12535 FILLER_176_601
*12536 FILLER_176_604
*12537 FILLER_176_607
*12538 FILLER_176_610
*12539 FILLER_176_613
*12540 FILLER_176_616
*12541 FILLER_176_619
*12542 FILLER_176_62
*12543 FILLER_176_622
*12544 FILLER_176_625
*12545 FILLER_176_628
*12546 FILLER_176_631
*12547 FILLER_176_634
*12548 FILLER_176_637
*12549 FILLER_176_640
*12550 FILLER_176_643
*12551 FILLER_176_645
*12552 FILLER_176_648
*12553 FILLER_176_65
*12554 FILLER_176_651
*12555 FILLER_176_654
*12556 FILLER_176_657
*12557 FILLER_176_660
*12558 FILLER_176_663
*12559 FILLER_176_666
*12560 FILLER_176_669
*12561 FILLER_176_672
*12562 FILLER_176_675
*12563 FILLER_176_678
*12564 FILLER_176_68
*12565 FILLER_176_681
*12566 FILLER_176_684
*12567 FILLER_176_687
*12568 FILLER_176_690
*12569 FILLER_176_693
*12570 FILLER_176_696
*12571 FILLER_176_699
*12572 FILLER_176_701
*12573 FILLER_176_704
*12574 FILLER_176_707
*12575 FILLER_176_71
*12576 FILLER_176_710
*12577 FILLER_176_713
*12578 FILLER_176_716
*12579 FILLER_176_719
*12580 FILLER_176_722
*12581 FILLER_176_725
*12582 FILLER_176_728
*12583 FILLER_176_731
*12584 FILLER_176_734
*12585 FILLER_176_737
*12586 FILLER_176_74
*12587 FILLER_176_740
*12588 FILLER_176_743
*12589 FILLER_176_746
*12590 FILLER_176_749
*12591 FILLER_176_752
*12592 FILLER_176_755
*12593 FILLER_176_757
*12594 FILLER_176_760
*12595 FILLER_176_763
*12596 FILLER_176_766
*12597 FILLER_176_769
*12598 FILLER_176_77
*12599 FILLER_176_772
*12600 FILLER_176_775
*12601 FILLER_176_778
*12602 FILLER_176_781
*12603 FILLER_176_784
*12604 FILLER_176_787
*12605 FILLER_176_790
*12606 FILLER_176_793
*12607 FILLER_176_796
*12608 FILLER_176_799
*12609 FILLER_176_80
*12610 FILLER_176_802
*12611 FILLER_176_805
*12612 FILLER_176_808
*12613 FILLER_176_811
*12614 FILLER_176_813
*12615 FILLER_176_816
*12616 FILLER_176_819
*12617 FILLER_176_822
*12618 FILLER_176_825
*12619 FILLER_176_828
*12620 FILLER_176_83
*12621 FILLER_176_831
*12622 FILLER_176_834
*12623 FILLER_176_837
*12624 FILLER_176_840
*12625 FILLER_176_843
*12626 FILLER_176_846
*12627 FILLER_176_849
*12628 FILLER_176_85
*12629 FILLER_176_852
*12630 FILLER_176_855
*12631 FILLER_176_858
*12632 FILLER_176_861
*12633 FILLER_176_864
*12634 FILLER_176_867
*12635 FILLER_176_869
*12636 FILLER_176_872
*12637 FILLER_176_875
*12638 FILLER_176_878
*12639 FILLER_176_88
*12640 FILLER_176_881
*12641 FILLER_176_884
*12642 FILLER_176_887
*12643 FILLER_176_890
*12644 FILLER_176_893
*12645 FILLER_176_896
*12646 FILLER_176_899
*12647 FILLER_176_9
*12648 FILLER_176_902
*12649 FILLER_176_905
*12650 FILLER_176_908
*12651 FILLER_176_91
*12652 FILLER_176_911
*12653 FILLER_176_914
*12654 FILLER_176_917
*12655 FILLER_176_920
*12656 FILLER_176_923
*12657 FILLER_176_925
*12658 FILLER_176_928
*12659 FILLER_176_931
*12660 FILLER_176_934
*12661 FILLER_176_937
*12662 FILLER_176_94
*12663 FILLER_176_940
*12664 FILLER_176_943
*12665 FILLER_176_946
*12666 FILLER_176_949
*12667 FILLER_176_952
*12668 FILLER_176_955
*12669 FILLER_176_958
*12670 FILLER_176_961
*12671 FILLER_176_964
*12672 FILLER_176_967
*12673 FILLER_176_97
*12674 FILLER_176_970
*12675 FILLER_176_973
*12676 FILLER_176_976
*12677 FILLER_176_979
*12678 FILLER_176_981
*12679 FILLER_176_984
*12680 FILLER_176_987
*12681 FILLER_176_990
*12682 FILLER_176_993
*12683 FILLER_176_996
*12684 FILLER_176_999
*12685 FILLER_177_1001
*12686 FILLER_177_1004
*12687 FILLER_177_1007
*12688 FILLER_177_1009
*12689 FILLER_177_1012
*12690 FILLER_177_1015
*12691 FILLER_177_1018
*12692 FILLER_177_102
*12693 FILLER_177_1021
*12694 FILLER_177_1024
*12695 FILLER_177_1027
*12696 FILLER_177_1030
*12697 FILLER_177_1033
*12698 FILLER_177_1036
*12699 FILLER_177_1039
*12700 FILLER_177_1042
*12701 FILLER_177_1045
*12702 FILLER_177_1048
*12703 FILLER_177_105
*12704 FILLER_177_1051
*12705 FILLER_177_1054
*12706 FILLER_177_1057
*12707 FILLER_177_1060
*12708 FILLER_177_1063
*12709 FILLER_177_1065
*12710 FILLER_177_1068
*12711 FILLER_177_1071
*12712 FILLER_177_1074
*12713 FILLER_177_1077
*12714 FILLER_177_108
*12715 FILLER_177_1080
*12716 FILLER_177_1083
*12717 FILLER_177_1086
*12718 FILLER_177_1089
*12719 FILLER_177_1092
*12720 FILLER_177_1095
*12721 FILLER_177_1098
*12722 FILLER_177_1101
*12723 FILLER_177_1104
*12724 FILLER_177_1107
*12725 FILLER_177_111
*12726 FILLER_177_1110
*12727 FILLER_177_1113
*12728 FILLER_177_1116
*12729 FILLER_177_1119
*12730 FILLER_177_1121
*12731 FILLER_177_1124
*12732 FILLER_177_1127
*12733 FILLER_177_113
*12734 FILLER_177_1130
*12735 FILLER_177_1133
*12736 FILLER_177_1136
*12737 FILLER_177_1139
*12738 FILLER_177_1142
*12739 FILLER_177_1145
*12740 FILLER_177_1148
*12741 FILLER_177_1151
*12742 FILLER_177_1154
*12743 FILLER_177_1157
*12744 FILLER_177_116
*12745 FILLER_177_1160
*12746 FILLER_177_1163
*12747 FILLER_177_1166
*12748 FILLER_177_1169
*12749 FILLER_177_1172
*12750 FILLER_177_1175
*12751 FILLER_177_1177
*12752 FILLER_177_1180
*12753 FILLER_177_1183
*12754 FILLER_177_1186
*12755 FILLER_177_1189
*12756 FILLER_177_119
*12757 FILLER_177_1192
*12758 FILLER_177_1195
*12759 FILLER_177_1198
*12760 FILLER_177_12
*12761 FILLER_177_1201
*12762 FILLER_177_1204
*12763 FILLER_177_1207
*12764 FILLER_177_1210
*12765 FILLER_177_1213
*12766 FILLER_177_1216
*12767 FILLER_177_1219
*12768 FILLER_177_122
*12769 FILLER_177_1222
*12770 FILLER_177_1225
*12771 FILLER_177_1228
*12772 FILLER_177_1231
*12773 FILLER_177_1233
*12774 FILLER_177_1236
*12775 FILLER_177_1239
*12776 FILLER_177_1242
*12777 FILLER_177_1245
*12778 FILLER_177_1248
*12779 FILLER_177_125
*12780 FILLER_177_1251
*12781 FILLER_177_1254
*12782 FILLER_177_1257
*12783 FILLER_177_1260
*12784 FILLER_177_1263
*12785 FILLER_177_1266
*12786 FILLER_177_1269
*12787 FILLER_177_1272
*12788 FILLER_177_1275
*12789 FILLER_177_1278
*12790 FILLER_177_128
*12791 FILLER_177_1281
*12792 FILLER_177_1284
*12793 FILLER_177_1287
*12794 FILLER_177_1289
*12795 FILLER_177_1292
*12796 FILLER_177_1295
*12797 FILLER_177_1298
*12798 FILLER_177_1301
*12799 FILLER_177_1304
*12800 FILLER_177_1307
*12801 FILLER_177_131
*12802 FILLER_177_1310
*12803 FILLER_177_1313
*12804 FILLER_177_1316
*12805 FILLER_177_1319
*12806 FILLER_177_1322
*12807 FILLER_177_1325
*12808 FILLER_177_1328
*12809 FILLER_177_1331
*12810 FILLER_177_1334
*12811 FILLER_177_1337
*12812 FILLER_177_134
*12813 FILLER_177_1340
*12814 FILLER_177_1343
*12815 FILLER_177_1345
*12816 FILLER_177_1348
*12817 FILLER_177_1351
*12818 FILLER_177_1354
*12819 FILLER_177_1357
*12820 FILLER_177_1360
*12821 FILLER_177_1363
*12822 FILLER_177_137
*12823 FILLER_177_140
*12824 FILLER_177_143
*12825 FILLER_177_146
*12826 FILLER_177_149
*12827 FILLER_177_15
*12828 FILLER_177_152
*12829 FILLER_177_155
*12830 FILLER_177_158
*12831 FILLER_177_161
*12832 FILLER_177_164
*12833 FILLER_177_167
*12834 FILLER_177_169
*12835 FILLER_177_172
*12836 FILLER_177_175
*12837 FILLER_177_178
*12838 FILLER_177_18
*12839 FILLER_177_181
*12840 FILLER_177_184
*12841 FILLER_177_187
*12842 FILLER_177_190
*12843 FILLER_177_193
*12844 FILLER_177_196
*12845 FILLER_177_199
*12846 FILLER_177_202
*12847 FILLER_177_205
*12848 FILLER_177_208
*12849 FILLER_177_21
*12850 FILLER_177_211
*12851 FILLER_177_214
*12852 FILLER_177_217
*12853 FILLER_177_220
*12854 FILLER_177_223
*12855 FILLER_177_225
*12856 FILLER_177_228
*12857 FILLER_177_231
*12858 FILLER_177_234
*12859 FILLER_177_237
*12860 FILLER_177_24
*12861 FILLER_177_240
*12862 FILLER_177_243
*12863 FILLER_177_246
*12864 FILLER_177_249
*12865 FILLER_177_252
*12866 FILLER_177_255
*12867 FILLER_177_258
*12868 FILLER_177_261
*12869 FILLER_177_264
*12870 FILLER_177_267
*12871 FILLER_177_27
*12872 FILLER_177_270
*12873 FILLER_177_273
*12874 FILLER_177_276
*12875 FILLER_177_279
*12876 FILLER_177_281
*12877 FILLER_177_284
*12878 FILLER_177_287
*12879 FILLER_177_290
*12880 FILLER_177_293
*12881 FILLER_177_296
*12882 FILLER_177_299
*12883 FILLER_177_3
*12884 FILLER_177_30
*12885 FILLER_177_302
*12886 FILLER_177_305
*12887 FILLER_177_308
*12888 FILLER_177_311
*12889 FILLER_177_314
*12890 FILLER_177_317
*12891 FILLER_177_320
*12892 FILLER_177_323
*12893 FILLER_177_326
*12894 FILLER_177_329
*12895 FILLER_177_33
*12896 FILLER_177_332
*12897 FILLER_177_335
*12898 FILLER_177_337
*12899 FILLER_177_340
*12900 FILLER_177_343
*12901 FILLER_177_346
*12902 FILLER_177_349
*12903 FILLER_177_352
*12904 FILLER_177_355
*12905 FILLER_177_358
*12906 FILLER_177_36
*12907 FILLER_177_361
*12908 FILLER_177_364
*12909 FILLER_177_367
*12910 FILLER_177_370
*12911 FILLER_177_373
*12912 FILLER_177_376
*12913 FILLER_177_379
*12914 FILLER_177_382
*12915 FILLER_177_385
*12916 FILLER_177_388
*12917 FILLER_177_39
*12918 FILLER_177_391
*12919 FILLER_177_393
*12920 FILLER_177_396
*12921 FILLER_177_399
*12922 FILLER_177_402
*12923 FILLER_177_405
*12924 FILLER_177_408
*12925 FILLER_177_411
*12926 FILLER_177_414
*12927 FILLER_177_417
*12928 FILLER_177_42
*12929 FILLER_177_420
*12930 FILLER_177_423
*12931 FILLER_177_426
*12932 FILLER_177_429
*12933 FILLER_177_432
*12934 FILLER_177_435
*12935 FILLER_177_438
*12936 FILLER_177_441
*12937 FILLER_177_444
*12938 FILLER_177_447
*12939 FILLER_177_449
*12940 FILLER_177_45
*12941 FILLER_177_452
*12942 FILLER_177_455
*12943 FILLER_177_458
*12944 FILLER_177_461
*12945 FILLER_177_464
*12946 FILLER_177_467
*12947 FILLER_177_470
*12948 FILLER_177_473
*12949 FILLER_177_476
*12950 FILLER_177_479
*12951 FILLER_177_48
*12952 FILLER_177_482
*12953 FILLER_177_485
*12954 FILLER_177_488
*12955 FILLER_177_491
*12956 FILLER_177_494
*12957 FILLER_177_497
*12958 FILLER_177_500
*12959 FILLER_177_503
*12960 FILLER_177_505
*12961 FILLER_177_508
*12962 FILLER_177_51
*12963 FILLER_177_511
*12964 FILLER_177_514
*12965 FILLER_177_517
*12966 FILLER_177_520
*12967 FILLER_177_523
*12968 FILLER_177_526
*12969 FILLER_177_529
*12970 FILLER_177_532
*12971 FILLER_177_535
*12972 FILLER_177_538
*12973 FILLER_177_54
*12974 FILLER_177_541
*12975 FILLER_177_544
*12976 FILLER_177_547
*12977 FILLER_177_550
*12978 FILLER_177_553
*12979 FILLER_177_556
*12980 FILLER_177_559
*12981 FILLER_177_561
*12982 FILLER_177_564
*12983 FILLER_177_567
*12984 FILLER_177_57
*12985 FILLER_177_570
*12986 FILLER_177_573
*12987 FILLER_177_576
*12988 FILLER_177_579
*12989 FILLER_177_582
*12990 FILLER_177_585
*12991 FILLER_177_588
*12992 FILLER_177_591
*12993 FILLER_177_594
*12994 FILLER_177_597
*12995 FILLER_177_6
*12996 FILLER_177_60
*12997 FILLER_177_600
*12998 FILLER_177_603
*12999 FILLER_177_606
*13000 FILLER_177_609
*13001 FILLER_177_612
*13002 FILLER_177_615
*13003 FILLER_177_617
*13004 FILLER_177_620
*13005 FILLER_177_623
*13006 FILLER_177_626
*13007 FILLER_177_629
*13008 FILLER_177_63
*13009 FILLER_177_632
*13010 FILLER_177_635
*13011 FILLER_177_638
*13012 FILLER_177_641
*13013 FILLER_177_644
*13014 FILLER_177_647
*13015 FILLER_177_650
*13016 FILLER_177_653
*13017 FILLER_177_656
*13018 FILLER_177_659
*13019 FILLER_177_66
*13020 FILLER_177_662
*13021 FILLER_177_665
*13022 FILLER_177_668
*13023 FILLER_177_671
*13024 FILLER_177_673
*13025 FILLER_177_676
*13026 FILLER_177_679
*13027 FILLER_177_682
*13028 FILLER_177_685
*13029 FILLER_177_688
*13030 FILLER_177_69
*13031 FILLER_177_691
*13032 FILLER_177_694
*13033 FILLER_177_697
*13034 FILLER_177_700
*13035 FILLER_177_703
*13036 FILLER_177_706
*13037 FILLER_177_709
*13038 FILLER_177_712
*13039 FILLER_177_715
*13040 FILLER_177_718
*13041 FILLER_177_72
*13042 FILLER_177_721
*13043 FILLER_177_724
*13044 FILLER_177_727
*13045 FILLER_177_729
*13046 FILLER_177_732
*13047 FILLER_177_735
*13048 FILLER_177_738
*13049 FILLER_177_741
*13050 FILLER_177_744
*13051 FILLER_177_747
*13052 FILLER_177_75
*13053 FILLER_177_750
*13054 FILLER_177_753
*13055 FILLER_177_756
*13056 FILLER_177_759
*13057 FILLER_177_762
*13058 FILLER_177_765
*13059 FILLER_177_768
*13060 FILLER_177_771
*13061 FILLER_177_774
*13062 FILLER_177_777
*13063 FILLER_177_78
*13064 FILLER_177_780
*13065 FILLER_177_783
*13066 FILLER_177_785
*13067 FILLER_177_788
*13068 FILLER_177_791
*13069 FILLER_177_794
*13070 FILLER_177_797
*13071 FILLER_177_800
*13072 FILLER_177_803
*13073 FILLER_177_806
*13074 FILLER_177_809
*13075 FILLER_177_81
*13076 FILLER_177_812
*13077 FILLER_177_815
*13078 FILLER_177_818
*13079 FILLER_177_821
*13080 FILLER_177_824
*13081 FILLER_177_827
*13082 FILLER_177_830
*13083 FILLER_177_833
*13084 FILLER_177_836
*13085 FILLER_177_839
*13086 FILLER_177_84
*13087 FILLER_177_841
*13088 FILLER_177_844
*13089 FILLER_177_847
*13090 FILLER_177_850
*13091 FILLER_177_853
*13092 FILLER_177_856
*13093 FILLER_177_859
*13094 FILLER_177_862
*13095 FILLER_177_865
*13096 FILLER_177_868
*13097 FILLER_177_87
*13098 FILLER_177_871
*13099 FILLER_177_874
*13100 FILLER_177_877
*13101 FILLER_177_880
*13102 FILLER_177_883
*13103 FILLER_177_886
*13104 FILLER_177_889
*13105 FILLER_177_892
*13106 FILLER_177_895
*13107 FILLER_177_897
*13108 FILLER_177_9
*13109 FILLER_177_90
*13110 FILLER_177_900
*13111 FILLER_177_903
*13112 FILLER_177_906
*13113 FILLER_177_909
*13114 FILLER_177_912
*13115 FILLER_177_915
*13116 FILLER_177_918
*13117 FILLER_177_921
*13118 FILLER_177_924
*13119 FILLER_177_927
*13120 FILLER_177_93
*13121 FILLER_177_930
*13122 FILLER_177_933
*13123 FILLER_177_936
*13124 FILLER_177_939
*13125 FILLER_177_942
*13126 FILLER_177_945
*13127 FILLER_177_948
*13128 FILLER_177_951
*13129 FILLER_177_953
*13130 FILLER_177_956
*13131 FILLER_177_959
*13132 FILLER_177_96
*13133 FILLER_177_962
*13134 FILLER_177_965
*13135 FILLER_177_968
*13136 FILLER_177_971
*13137 FILLER_177_974
*13138 FILLER_177_977
*13139 FILLER_177_980
*13140 FILLER_177_983
*13141 FILLER_177_986
*13142 FILLER_177_989
*13143 FILLER_177_99
*13144 FILLER_177_992
*13145 FILLER_177_995
*13146 FILLER_177_998
*13147 FILLER_178_100
*13148 FILLER_178_1002
*13149 FILLER_178_1005
*13150 FILLER_178_1008
*13151 FILLER_178_1011
*13152 FILLER_178_1014
*13153 FILLER_178_1017
*13154 FILLER_178_1020
*13155 FILLER_178_1023
*13156 FILLER_178_1026
*13157 FILLER_178_1029
*13158 FILLER_178_103
*13159 FILLER_178_1032
*13160 FILLER_178_1035
*13161 FILLER_178_1037
*13162 FILLER_178_1040
*13163 FILLER_178_1043
*13164 FILLER_178_1046
*13165 FILLER_178_1049
*13166 FILLER_178_1052
*13167 FILLER_178_1055
*13168 FILLER_178_1058
*13169 FILLER_178_106
*13170 FILLER_178_1061
*13171 FILLER_178_1064
*13172 FILLER_178_1067
*13173 FILLER_178_1070
*13174 FILLER_178_1073
*13175 FILLER_178_1076
*13176 FILLER_178_1079
*13177 FILLER_178_1082
*13178 FILLER_178_1085
*13179 FILLER_178_1088
*13180 FILLER_178_109
*13181 FILLER_178_1091
*13182 FILLER_178_1093
*13183 FILLER_178_1096
*13184 FILLER_178_1099
*13185 FILLER_178_1102
*13186 FILLER_178_1105
*13187 FILLER_178_1108
*13188 FILLER_178_1111
*13189 FILLER_178_1114
*13190 FILLER_178_1117
*13191 FILLER_178_112
*13192 FILLER_178_1120
*13193 FILLER_178_1123
*13194 FILLER_178_1126
*13195 FILLER_178_1129
*13196 FILLER_178_1132
*13197 FILLER_178_1135
*13198 FILLER_178_1138
*13199 FILLER_178_1141
*13200 FILLER_178_1144
*13201 FILLER_178_1147
*13202 FILLER_178_1149
*13203 FILLER_178_115
*13204 FILLER_178_1152
*13205 FILLER_178_1155
*13206 FILLER_178_1158
*13207 FILLER_178_1161
*13208 FILLER_178_1164
*13209 FILLER_178_1167
*13210 FILLER_178_1170
*13211 FILLER_178_1173
*13212 FILLER_178_1176
*13213 FILLER_178_1179
*13214 FILLER_178_118
*13215 FILLER_178_1182
*13216 FILLER_178_1185
*13217 FILLER_178_1188
*13218 FILLER_178_1191
*13219 FILLER_178_1194
*13220 FILLER_178_1197
*13221 FILLER_178_12
*13222 FILLER_178_1200
*13223 FILLER_178_1203
*13224 FILLER_178_1205
*13225 FILLER_178_1208
*13226 FILLER_178_121
*13227 FILLER_178_1211
*13228 FILLER_178_1214
*13229 FILLER_178_1217
*13230 FILLER_178_1220
*13231 FILLER_178_1223
*13232 FILLER_178_1226
*13233 FILLER_178_1229
*13234 FILLER_178_1232
*13235 FILLER_178_1235
*13236 FILLER_178_1238
*13237 FILLER_178_124
*13238 FILLER_178_1241
*13239 FILLER_178_1244
*13240 FILLER_178_1247
*13241 FILLER_178_1250
*13242 FILLER_178_1253
*13243 FILLER_178_1256
*13244 FILLER_178_1259
*13245 FILLER_178_1261
*13246 FILLER_178_1264
*13247 FILLER_178_1267
*13248 FILLER_178_127
*13249 FILLER_178_1270
*13250 FILLER_178_1273
*13251 FILLER_178_1276
*13252 FILLER_178_1279
*13253 FILLER_178_1282
*13254 FILLER_178_1285
*13255 FILLER_178_1288
*13256 FILLER_178_1291
*13257 FILLER_178_1294
*13258 FILLER_178_1297
*13259 FILLER_178_130
*13260 FILLER_178_1300
*13261 FILLER_178_1303
*13262 FILLER_178_1306
*13263 FILLER_178_1309
*13264 FILLER_178_1312
*13265 FILLER_178_1315
*13266 FILLER_178_1317
*13267 FILLER_178_1320
*13268 FILLER_178_1323
*13269 FILLER_178_1326
*13270 FILLER_178_1329
*13271 FILLER_178_133
*13272 FILLER_178_1332
*13273 FILLER_178_1335
*13274 FILLER_178_1338
*13275 FILLER_178_1341
*13276 FILLER_178_1344
*13277 FILLER_178_1347
*13278 FILLER_178_1350
*13279 FILLER_178_1353
*13280 FILLER_178_1356
*13281 FILLER_178_1359
*13282 FILLER_178_136
*13283 FILLER_178_1362
*13284 FILLER_178_139
*13285 FILLER_178_141
*13286 FILLER_178_144
*13287 FILLER_178_147
*13288 FILLER_178_15
*13289 FILLER_178_150
*13290 FILLER_178_153
*13291 FILLER_178_156
*13292 FILLER_178_159
*13293 FILLER_178_162
*13294 FILLER_178_165
*13295 FILLER_178_168
*13296 FILLER_178_171
*13297 FILLER_178_174
*13298 FILLER_178_177
*13299 FILLER_178_18
*13300 FILLER_178_180
*13301 FILLER_178_183
*13302 FILLER_178_186
*13303 FILLER_178_189
*13304 FILLER_178_192
*13305 FILLER_178_195
*13306 FILLER_178_197
*13307 FILLER_178_200
*13308 FILLER_178_203
*13309 FILLER_178_206
*13310 FILLER_178_209
*13311 FILLER_178_21
*13312 FILLER_178_212
*13313 FILLER_178_215
*13314 FILLER_178_218
*13315 FILLER_178_221
*13316 FILLER_178_224
*13317 FILLER_178_227
*13318 FILLER_178_230
*13319 FILLER_178_233
*13320 FILLER_178_236
*13321 FILLER_178_239
*13322 FILLER_178_24
*13323 FILLER_178_242
*13324 FILLER_178_245
*13325 FILLER_178_248
*13326 FILLER_178_251
*13327 FILLER_178_253
*13328 FILLER_178_256
*13329 FILLER_178_259
*13330 FILLER_178_262
*13331 FILLER_178_265
*13332 FILLER_178_268
*13333 FILLER_178_27
*13334 FILLER_178_271
*13335 FILLER_178_274
*13336 FILLER_178_277
*13337 FILLER_178_280
*13338 FILLER_178_283
*13339 FILLER_178_286
*13340 FILLER_178_289
*13341 FILLER_178_29
*13342 FILLER_178_292
*13343 FILLER_178_295
*13344 FILLER_178_298
*13345 FILLER_178_3
*13346 FILLER_178_301
*13347 FILLER_178_304
*13348 FILLER_178_307
*13349 FILLER_178_309
*13350 FILLER_178_312
*13351 FILLER_178_315
*13352 FILLER_178_318
*13353 FILLER_178_32
*13354 FILLER_178_321
*13355 FILLER_178_324
*13356 FILLER_178_327
*13357 FILLER_178_330
*13358 FILLER_178_333
*13359 FILLER_178_336
*13360 FILLER_178_339
*13361 FILLER_178_342
*13362 FILLER_178_345
*13363 FILLER_178_348
*13364 FILLER_178_35
*13365 FILLER_178_351
*13366 FILLER_178_354
*13367 FILLER_178_357
*13368 FILLER_178_360
*13369 FILLER_178_363
*13370 FILLER_178_365
*13371 FILLER_178_368
*13372 FILLER_178_371
*13373 FILLER_178_374
*13374 FILLER_178_377
*13375 FILLER_178_38
*13376 FILLER_178_380
*13377 FILLER_178_383
*13378 FILLER_178_386
*13379 FILLER_178_389
*13380 FILLER_178_392
*13381 FILLER_178_395
*13382 FILLER_178_398
*13383 FILLER_178_401
*13384 FILLER_178_404
*13385 FILLER_178_407
*13386 FILLER_178_41
*13387 FILLER_178_410
*13388 FILLER_178_413
*13389 FILLER_178_416
*13390 FILLER_178_419
*13391 FILLER_178_421
*13392 FILLER_178_424
*13393 FILLER_178_427
*13394 FILLER_178_430
*13395 FILLER_178_433
*13396 FILLER_178_436
*13397 FILLER_178_439
*13398 FILLER_178_44
*13399 FILLER_178_442
*13400 FILLER_178_445
*13401 FILLER_178_448
*13402 FILLER_178_451
*13403 FILLER_178_454
*13404 FILLER_178_457
*13405 FILLER_178_460
*13406 FILLER_178_463
*13407 FILLER_178_466
*13408 FILLER_178_469
*13409 FILLER_178_47
*13410 FILLER_178_472
*13411 FILLER_178_475
*13412 FILLER_178_477
*13413 FILLER_178_480
*13414 FILLER_178_483
*13415 FILLER_178_486
*13416 FILLER_178_489
*13417 FILLER_178_492
*13418 FILLER_178_495
*13419 FILLER_178_498
*13420 FILLER_178_50
*13421 FILLER_178_501
*13422 FILLER_178_504
*13423 FILLER_178_507
*13424 FILLER_178_510
*13425 FILLER_178_513
*13426 FILLER_178_516
*13427 FILLER_178_519
*13428 FILLER_178_522
*13429 FILLER_178_525
*13430 FILLER_178_528
*13431 FILLER_178_53
*13432 FILLER_178_531
*13433 FILLER_178_533
*13434 FILLER_178_536
*13435 FILLER_178_539
*13436 FILLER_178_542
*13437 FILLER_178_545
*13438 FILLER_178_548
*13439 FILLER_178_551
*13440 FILLER_178_554
*13441 FILLER_178_557
*13442 FILLER_178_56
*13443 FILLER_178_560
*13444 FILLER_178_563
*13445 FILLER_178_566
*13446 FILLER_178_569
*13447 FILLER_178_572
*13448 FILLER_178_575
*13449 FILLER_178_578
*13450 FILLER_178_581
*13451 FILLER_178_584
*13452 FILLER_178_587
*13453 FILLER_178_589
*13454 FILLER_178_59
*13455 FILLER_178_592
*13456 FILLER_178_595
*13457 FILLER_178_598
*13458 FILLER_178_6
*13459 FILLER_178_601
*13460 FILLER_178_604
*13461 FILLER_178_607
*13462 FILLER_178_610
*13463 FILLER_178_613
*13464 FILLER_178_616
*13465 FILLER_178_619
*13466 FILLER_178_62
*13467 FILLER_178_622
*13468 FILLER_178_625
*13469 FILLER_178_628
*13470 FILLER_178_631
*13471 FILLER_178_634
*13472 FILLER_178_637
*13473 FILLER_178_640
*13474 FILLER_178_643
*13475 FILLER_178_645
*13476 FILLER_178_648
*13477 FILLER_178_65
*13478 FILLER_178_651
*13479 FILLER_178_654
*13480 FILLER_178_657
*13481 FILLER_178_660
*13482 FILLER_178_663
*13483 FILLER_178_666
*13484 FILLER_178_669
*13485 FILLER_178_672
*13486 FILLER_178_675
*13487 FILLER_178_678
*13488 FILLER_178_68
*13489 FILLER_178_681
*13490 FILLER_178_684
*13491 FILLER_178_687
*13492 FILLER_178_690
*13493 FILLER_178_693
*13494 FILLER_178_696
*13495 FILLER_178_699
*13496 FILLER_178_701
*13497 FILLER_178_704
*13498 FILLER_178_707
*13499 FILLER_178_71
*13500 FILLER_178_710
*13501 FILLER_178_713
*13502 FILLER_178_716
*13503 FILLER_178_719
*13504 FILLER_178_722
*13505 FILLER_178_725
*13506 FILLER_178_728
*13507 FILLER_178_731
*13508 FILLER_178_734
*13509 FILLER_178_737
*13510 FILLER_178_74
*13511 FILLER_178_740
*13512 FILLER_178_743
*13513 FILLER_178_746
*13514 FILLER_178_749
*13515 FILLER_178_752
*13516 FILLER_178_755
*13517 FILLER_178_757
*13518 FILLER_178_760
*13519 FILLER_178_763
*13520 FILLER_178_766
*13521 FILLER_178_769
*13522 FILLER_178_77
*13523 FILLER_178_772
*13524 FILLER_178_775
*13525 FILLER_178_778
*13526 FILLER_178_781
*13527 FILLER_178_784
*13528 FILLER_178_787
*13529 FILLER_178_790
*13530 FILLER_178_793
*13531 FILLER_178_796
*13532 FILLER_178_799
*13533 FILLER_178_80
*13534 FILLER_178_802
*13535 FILLER_178_805
*13536 FILLER_178_808
*13537 FILLER_178_811
*13538 FILLER_178_813
*13539 FILLER_178_816
*13540 FILLER_178_819
*13541 FILLER_178_822
*13542 FILLER_178_825
*13543 FILLER_178_828
*13544 FILLER_178_83
*13545 FILLER_178_831
*13546 FILLER_178_834
*13547 FILLER_178_837
*13548 FILLER_178_840
*13549 FILLER_178_843
*13550 FILLER_178_846
*13551 FILLER_178_849
*13552 FILLER_178_85
*13553 FILLER_178_852
*13554 FILLER_178_855
*13555 FILLER_178_858
*13556 FILLER_178_861
*13557 FILLER_178_864
*13558 FILLER_178_867
*13559 FILLER_178_869
*13560 FILLER_178_872
*13561 FILLER_178_875
*13562 FILLER_178_878
*13563 FILLER_178_88
*13564 FILLER_178_881
*13565 FILLER_178_884
*13566 FILLER_178_887
*13567 FILLER_178_890
*13568 FILLER_178_893
*13569 FILLER_178_896
*13570 FILLER_178_899
*13571 FILLER_178_9
*13572 FILLER_178_902
*13573 FILLER_178_905
*13574 FILLER_178_908
*13575 FILLER_178_91
*13576 FILLER_178_911
*13577 FILLER_178_914
*13578 FILLER_178_917
*13579 FILLER_178_920
*13580 FILLER_178_923
*13581 FILLER_178_925
*13582 FILLER_178_928
*13583 FILLER_178_931
*13584 FILLER_178_934
*13585 FILLER_178_937
*13586 FILLER_178_94
*13587 FILLER_178_940
*13588 FILLER_178_943
*13589 FILLER_178_946
*13590 FILLER_178_949
*13591 FILLER_178_952
*13592 FILLER_178_955
*13593 FILLER_178_958
*13594 FILLER_178_961
*13595 FILLER_178_964
*13596 FILLER_178_967
*13597 FILLER_178_97
*13598 FILLER_178_970
*13599 FILLER_178_973
*13600 FILLER_178_976
*13601 FILLER_178_979
*13602 FILLER_178_981
*13603 FILLER_178_984
*13604 FILLER_178_987
*13605 FILLER_178_990
*13606 FILLER_178_993
*13607 FILLER_178_996
*13608 FILLER_178_999
*13609 FILLER_179_1001
*13610 FILLER_179_1004
*13611 FILLER_179_1007
*13612 FILLER_179_1009
*13613 FILLER_179_1012
*13614 FILLER_179_1015
*13615 FILLER_179_1018
*13616 FILLER_179_102
*13617 FILLER_179_1021
*13618 FILLER_179_1024
*13619 FILLER_179_1027
*13620 FILLER_179_1030
*13621 FILLER_179_1033
*13622 FILLER_179_1036
*13623 FILLER_179_1039
*13624 FILLER_179_1042
*13625 FILLER_179_1045
*13626 FILLER_179_1048
*13627 FILLER_179_105
*13628 FILLER_179_1051
*13629 FILLER_179_1054
*13630 FILLER_179_1057
*13631 FILLER_179_1060
*13632 FILLER_179_1063
*13633 FILLER_179_1065
*13634 FILLER_179_1068
*13635 FILLER_179_1071
*13636 FILLER_179_1074
*13637 FILLER_179_1077
*13638 FILLER_179_108
*13639 FILLER_179_1080
*13640 FILLER_179_1083
*13641 FILLER_179_1086
*13642 FILLER_179_1089
*13643 FILLER_179_1092
*13644 FILLER_179_1095
*13645 FILLER_179_1098
*13646 FILLER_179_1101
*13647 FILLER_179_1104
*13648 FILLER_179_1107
*13649 FILLER_179_111
*13650 FILLER_179_1110
*13651 FILLER_179_1113
*13652 FILLER_179_1116
*13653 FILLER_179_1119
*13654 FILLER_179_1121
*13655 FILLER_179_1124
*13656 FILLER_179_1127
*13657 FILLER_179_113
*13658 FILLER_179_1130
*13659 FILLER_179_1133
*13660 FILLER_179_1136
*13661 FILLER_179_1139
*13662 FILLER_179_1142
*13663 FILLER_179_1145
*13664 FILLER_179_1148
*13665 FILLER_179_1151
*13666 FILLER_179_1154
*13667 FILLER_179_1157
*13668 FILLER_179_116
*13669 FILLER_179_1160
*13670 FILLER_179_1163
*13671 FILLER_179_1166
*13672 FILLER_179_1169
*13673 FILLER_179_1172
*13674 FILLER_179_1175
*13675 FILLER_179_1177
*13676 FILLER_179_1180
*13677 FILLER_179_1183
*13678 FILLER_179_1186
*13679 FILLER_179_1189
*13680 FILLER_179_119
*13681 FILLER_179_1192
*13682 FILLER_179_1195
*13683 FILLER_179_1198
*13684 FILLER_179_12
*13685 FILLER_179_1201
*13686 FILLER_179_1204
*13687 FILLER_179_1207
*13688 FILLER_179_1210
*13689 FILLER_179_1213
*13690 FILLER_179_1216
*13691 FILLER_179_1219
*13692 FILLER_179_122
*13693 FILLER_179_1222
*13694 FILLER_179_1225
*13695 FILLER_179_1228
*13696 FILLER_179_1231
*13697 FILLER_179_1233
*13698 FILLER_179_1236
*13699 FILLER_179_1239
*13700 FILLER_179_1242
*13701 FILLER_179_1245
*13702 FILLER_179_1248
*13703 FILLER_179_125
*13704 FILLER_179_1251
*13705 FILLER_179_1254
*13706 FILLER_179_1257
*13707 FILLER_179_1260
*13708 FILLER_179_1263
*13709 FILLER_179_1266
*13710 FILLER_179_1269
*13711 FILLER_179_1272
*13712 FILLER_179_1275
*13713 FILLER_179_1278
*13714 FILLER_179_128
*13715 FILLER_179_1281
*13716 FILLER_179_1284
*13717 FILLER_179_1287
*13718 FILLER_179_1289
*13719 FILLER_179_1292
*13720 FILLER_179_1295
*13721 FILLER_179_1298
*13722 FILLER_179_1301
*13723 FILLER_179_1304
*13724 FILLER_179_1307
*13725 FILLER_179_131
*13726 FILLER_179_1310
*13727 FILLER_179_1313
*13728 FILLER_179_1316
*13729 FILLER_179_1319
*13730 FILLER_179_1322
*13731 FILLER_179_1325
*13732 FILLER_179_1328
*13733 FILLER_179_1331
*13734 FILLER_179_1334
*13735 FILLER_179_1337
*13736 FILLER_179_134
*13737 FILLER_179_1340
*13738 FILLER_179_1343
*13739 FILLER_179_1345
*13740 FILLER_179_1348
*13741 FILLER_179_1351
*13742 FILLER_179_1354
*13743 FILLER_179_1357
*13744 FILLER_179_1360
*13745 FILLER_179_1363
*13746 FILLER_179_137
*13747 FILLER_179_140
*13748 FILLER_179_143
*13749 FILLER_179_146
*13750 FILLER_179_149
*13751 FILLER_179_15
*13752 FILLER_179_152
*13753 FILLER_179_155
*13754 FILLER_179_158
*13755 FILLER_179_161
*13756 FILLER_179_164
*13757 FILLER_179_167
*13758 FILLER_179_169
*13759 FILLER_179_172
*13760 FILLER_179_175
*13761 FILLER_179_178
*13762 FILLER_179_18
*13763 FILLER_179_181
*13764 FILLER_179_184
*13765 FILLER_179_187
*13766 FILLER_179_190
*13767 FILLER_179_193
*13768 FILLER_179_196
*13769 FILLER_179_199
*13770 FILLER_179_202
*13771 FILLER_179_205
*13772 FILLER_179_208
*13773 FILLER_179_21
*13774 FILLER_179_211
*13775 FILLER_179_214
*13776 FILLER_179_217
*13777 FILLER_179_220
*13778 FILLER_179_223
*13779 FILLER_179_225
*13780 FILLER_179_228
*13781 FILLER_179_231
*13782 FILLER_179_234
*13783 FILLER_179_237
*13784 FILLER_179_24
*13785 FILLER_179_240
*13786 FILLER_179_243
*13787 FILLER_179_246
*13788 FILLER_179_249
*13789 FILLER_179_252
*13790 FILLER_179_255
*13791 FILLER_179_258
*13792 FILLER_179_261
*13793 FILLER_179_264
*13794 FILLER_179_267
*13795 FILLER_179_27
*13796 FILLER_179_270
*13797 FILLER_179_273
*13798 FILLER_179_276
*13799 FILLER_179_279
*13800 FILLER_179_281
*13801 FILLER_179_284
*13802 FILLER_179_287
*13803 FILLER_179_290
*13804 FILLER_179_293
*13805 FILLER_179_296
*13806 FILLER_179_299
*13807 FILLER_179_3
*13808 FILLER_179_30
*13809 FILLER_179_302
*13810 FILLER_179_305
*13811 FILLER_179_308
*13812 FILLER_179_311
*13813 FILLER_179_314
*13814 FILLER_179_317
*13815 FILLER_179_320
*13816 FILLER_179_323
*13817 FILLER_179_326
*13818 FILLER_179_329
*13819 FILLER_179_33
*13820 FILLER_179_332
*13821 FILLER_179_335
*13822 FILLER_179_337
*13823 FILLER_179_340
*13824 FILLER_179_343
*13825 FILLER_179_346
*13826 FILLER_179_349
*13827 FILLER_179_352
*13828 FILLER_179_355
*13829 FILLER_179_358
*13830 FILLER_179_36
*13831 FILLER_179_361
*13832 FILLER_179_364
*13833 FILLER_179_367
*13834 FILLER_179_370
*13835 FILLER_179_373
*13836 FILLER_179_376
*13837 FILLER_179_379
*13838 FILLER_179_382
*13839 FILLER_179_385
*13840 FILLER_179_388
*13841 FILLER_179_39
*13842 FILLER_179_391
*13843 FILLER_179_393
*13844 FILLER_179_396
*13845 FILLER_179_399
*13846 FILLER_179_402
*13847 FILLER_179_405
*13848 FILLER_179_408
*13849 FILLER_179_411
*13850 FILLER_179_414
*13851 FILLER_179_417
*13852 FILLER_179_42
*13853 FILLER_179_420
*13854 FILLER_179_423
*13855 FILLER_179_426
*13856 FILLER_179_429
*13857 FILLER_179_432
*13858 FILLER_179_435
*13859 FILLER_179_438
*13860 FILLER_179_441
*13861 FILLER_179_444
*13862 FILLER_179_447
*13863 FILLER_179_449
*13864 FILLER_179_45
*13865 FILLER_179_452
*13866 FILLER_179_455
*13867 FILLER_179_458
*13868 FILLER_179_461
*13869 FILLER_179_464
*13870 FILLER_179_467
*13871 FILLER_179_470
*13872 FILLER_179_473
*13873 FILLER_179_476
*13874 FILLER_179_479
*13875 FILLER_179_48
*13876 FILLER_179_482
*13877 FILLER_179_485
*13878 FILLER_179_488
*13879 FILLER_179_491
*13880 FILLER_179_494
*13881 FILLER_179_497
*13882 FILLER_179_500
*13883 FILLER_179_503
*13884 FILLER_179_505
*13885 FILLER_179_508
*13886 FILLER_179_51
*13887 FILLER_179_511
*13888 FILLER_179_514
*13889 FILLER_179_517
*13890 FILLER_179_520
*13891 FILLER_179_523
*13892 FILLER_179_526
*13893 FILLER_179_529
*13894 FILLER_179_532
*13895 FILLER_179_535
*13896 FILLER_179_538
*13897 FILLER_179_54
*13898 FILLER_179_541
*13899 FILLER_179_544
*13900 FILLER_179_547
*13901 FILLER_179_550
*13902 FILLER_179_553
*13903 FILLER_179_556
*13904 FILLER_179_559
*13905 FILLER_179_561
*13906 FILLER_179_564
*13907 FILLER_179_567
*13908 FILLER_179_57
*13909 FILLER_179_570
*13910 FILLER_179_573
*13911 FILLER_179_576
*13912 FILLER_179_579
*13913 FILLER_179_582
*13914 FILLER_179_585
*13915 FILLER_179_588
*13916 FILLER_179_591
*13917 FILLER_179_594
*13918 FILLER_179_597
*13919 FILLER_179_6
*13920 FILLER_179_60
*13921 FILLER_179_600
*13922 FILLER_179_603
*13923 FILLER_179_606
*13924 FILLER_179_609
*13925 FILLER_179_612
*13926 FILLER_179_615
*13927 FILLER_179_617
*13928 FILLER_179_620
*13929 FILLER_179_623
*13930 FILLER_179_626
*13931 FILLER_179_629
*13932 FILLER_179_63
*13933 FILLER_179_632
*13934 FILLER_179_635
*13935 FILLER_179_638
*13936 FILLER_179_641
*13937 FILLER_179_644
*13938 FILLER_179_647
*13939 FILLER_179_650
*13940 FILLER_179_653
*13941 FILLER_179_656
*13942 FILLER_179_659
*13943 FILLER_179_66
*13944 FILLER_179_662
*13945 FILLER_179_665
*13946 FILLER_179_668
*13947 FILLER_179_671
*13948 FILLER_179_673
*13949 FILLER_179_676
*13950 FILLER_179_679
*13951 FILLER_179_682
*13952 FILLER_179_685
*13953 FILLER_179_688
*13954 FILLER_179_69
*13955 FILLER_179_691
*13956 FILLER_179_694
*13957 FILLER_179_697
*13958 FILLER_179_700
*13959 FILLER_179_703
*13960 FILLER_179_706
*13961 FILLER_179_709
*13962 FILLER_179_712
*13963 FILLER_179_715
*13964 FILLER_179_718
*13965 FILLER_179_72
*13966 FILLER_179_721
*13967 FILLER_179_724
*13968 FILLER_179_727
*13969 FILLER_179_729
*13970 FILLER_179_732
*13971 FILLER_179_735
*13972 FILLER_179_738
*13973 FILLER_179_741
*13974 FILLER_179_744
*13975 FILLER_179_747
*13976 FILLER_179_75
*13977 FILLER_179_750
*13978 FILLER_179_753
*13979 FILLER_179_756
*13980 FILLER_179_759
*13981 FILLER_179_762
*13982 FILLER_179_765
*13983 FILLER_179_768
*13984 FILLER_179_771
*13985 FILLER_179_774
*13986 FILLER_179_777
*13987 FILLER_179_78
*13988 FILLER_179_780
*13989 FILLER_179_783
*13990 FILLER_179_785
*13991 FILLER_179_788
*13992 FILLER_179_791
*13993 FILLER_179_794
*13994 FILLER_179_797
*13995 FILLER_179_800
*13996 FILLER_179_803
*13997 FILLER_179_806
*13998 FILLER_179_809
*13999 FILLER_179_81
*14000 FILLER_179_812
*14001 FILLER_179_815
*14002 FILLER_179_818
*14003 FILLER_179_821
*14004 FILLER_179_824
*14005 FILLER_179_827
*14006 FILLER_179_830
*14007 FILLER_179_833
*14008 FILLER_179_836
*14009 FILLER_179_839
*14010 FILLER_179_84
*14011 FILLER_179_841
*14012 FILLER_179_844
*14013 FILLER_179_847
*14014 FILLER_179_850
*14015 FILLER_179_853
*14016 FILLER_179_856
*14017 FILLER_179_859
*14018 FILLER_179_862
*14019 FILLER_179_865
*14020 FILLER_179_868
*14021 FILLER_179_87
*14022 FILLER_179_871
*14023 FILLER_179_874
*14024 FILLER_179_877
*14025 FILLER_179_880
*14026 FILLER_179_883
*14027 FILLER_179_886
*14028 FILLER_179_889
*14029 FILLER_179_892
*14030 FILLER_179_895
*14031 FILLER_179_897
*14032 FILLER_179_9
*14033 FILLER_179_90
*14034 FILLER_179_900
*14035 FILLER_179_903
*14036 FILLER_179_906
*14037 FILLER_179_909
*14038 FILLER_179_912
*14039 FILLER_179_915
*14040 FILLER_179_918
*14041 FILLER_179_921
*14042 FILLER_179_924
*14043 FILLER_179_927
*14044 FILLER_179_93
*14045 FILLER_179_930
*14046 FILLER_179_933
*14047 FILLER_179_936
*14048 FILLER_179_939
*14049 FILLER_179_942
*14050 FILLER_179_945
*14051 FILLER_179_948
*14052 FILLER_179_951
*14053 FILLER_179_953
*14054 FILLER_179_956
*14055 FILLER_179_959
*14056 FILLER_179_96
*14057 FILLER_179_962
*14058 FILLER_179_965
*14059 FILLER_179_968
*14060 FILLER_179_971
*14061 FILLER_179_974
*14062 FILLER_179_977
*14063 FILLER_179_980
*14064 FILLER_179_983
*14065 FILLER_179_986
*14066 FILLER_179_989
*14067 FILLER_179_99
*14068 FILLER_179_992
*14069 FILLER_179_995
*14070 FILLER_179_998
*14071 FILLER_17_100
*14072 FILLER_17_1002
*14073 FILLER_17_1005
*14074 FILLER_17_1009
*14075 FILLER_17_1012
*14076 FILLER_17_1015
*14077 FILLER_17_1018
*14078 FILLER_17_1021
*14079 FILLER_17_1024
*14080 FILLER_17_1027
*14081 FILLER_17_103
*14082 FILLER_17_1030
*14083 FILLER_17_1046
*14084 FILLER_17_1049
*14085 FILLER_17_1052
*14086 FILLER_17_1055
*14087 FILLER_17_1058
*14088 FILLER_17_106
*14089 FILLER_17_1061
*14090 FILLER_17_1065
*14091 FILLER_17_1068
*14092 FILLER_17_1071
*14093 FILLER_17_1074
*14094 FILLER_17_1077
*14095 FILLER_17_1080
*14096 FILLER_17_1083
*14097 FILLER_17_1086
*14098 FILLER_17_1089
*14099 FILLER_17_109
*14100 FILLER_17_1093
*14101 FILLER_17_1096
*14102 FILLER_17_1099
*14103 FILLER_17_1102
*14104 FILLER_17_1105
*14105 FILLER_17_1108
*14106 FILLER_17_1111
*14107 FILLER_17_1114
*14108 FILLER_17_1117
*14109 FILLER_17_1121
*14110 FILLER_17_1124
*14111 FILLER_17_1127
*14112 FILLER_17_113
*14113 FILLER_17_1130
*14114 FILLER_17_1133
*14115 FILLER_17_1136
*14116 FILLER_17_1139
*14117 FILLER_17_1142
*14118 FILLER_17_1145
*14119 FILLER_17_1149
*14120 FILLER_17_1152
*14121 FILLER_17_1155
*14122 FILLER_17_1158
*14123 FILLER_17_116
*14124 FILLER_17_1161
*14125 FILLER_17_1164
*14126 FILLER_17_1167
*14127 FILLER_17_1170
*14128 FILLER_17_1173
*14129 FILLER_17_1177
*14130 FILLER_17_1180
*14131 FILLER_17_1183
*14132 FILLER_17_1186
*14133 FILLER_17_1189
*14134 FILLER_17_119
*14135 FILLER_17_1192
*14136 FILLER_17_1195
*14137 FILLER_17_1198
*14138 FILLER_17_12
*14139 FILLER_17_1201
*14140 FILLER_17_1205
*14141 FILLER_17_1208
*14142 FILLER_17_1211
*14143 FILLER_17_1214
*14144 FILLER_17_1217
*14145 FILLER_17_122
*14146 FILLER_17_1220
*14147 FILLER_17_1223
*14148 FILLER_17_1226
*14149 FILLER_17_1229
*14150 FILLER_17_1233
*14151 FILLER_17_1236
*14152 FILLER_17_1239
*14153 FILLER_17_1242
*14154 FILLER_17_1245
*14155 FILLER_17_1248
*14156 FILLER_17_125
*14157 FILLER_17_1251
*14158 FILLER_17_1254
*14159 FILLER_17_1257
*14160 FILLER_17_1261
*14161 FILLER_17_1264
*14162 FILLER_17_1267
*14163 FILLER_17_1270
*14164 FILLER_17_1273
*14165 FILLER_17_1276
*14166 FILLER_17_1279
*14167 FILLER_17_128
*14168 FILLER_17_1282
*14169 FILLER_17_1285
*14170 FILLER_17_1289
*14171 FILLER_17_1292
*14172 FILLER_17_1295
*14173 FILLER_17_1298
*14174 FILLER_17_1301
*14175 FILLER_17_1304
*14176 FILLER_17_1307
*14177 FILLER_17_131
*14178 FILLER_17_1310
*14179 FILLER_17_1313
*14180 FILLER_17_1317
*14181 FILLER_17_1320
*14182 FILLER_17_1323
*14183 FILLER_17_1326
*14184 FILLER_17_1329
*14185 FILLER_17_1332
*14186 FILLER_17_1335
*14187 FILLER_17_1338
*14188 FILLER_17_134
*14189 FILLER_17_1341
*14190 FILLER_17_1345
*14191 FILLER_17_1348
*14192 FILLER_17_1351
*14193 FILLER_17_1354
*14194 FILLER_17_1357
*14195 FILLER_17_1360
*14196 FILLER_17_1363
*14197 FILLER_17_137
*14198 FILLER_17_141
*14199 FILLER_17_144
*14200 FILLER_17_147
*14201 FILLER_17_15
*14202 FILLER_17_150
*14203 FILLER_17_153
*14204 FILLER_17_156
*14205 FILLER_17_159
*14206 FILLER_17_162
*14207 FILLER_17_165
*14208 FILLER_17_169
*14209 FILLER_17_172
*14210 FILLER_17_175
*14211 FILLER_17_178
*14212 FILLER_17_18
*14213 FILLER_17_181
*14214 FILLER_17_184
*14215 FILLER_17_197
*14216 FILLER_17_200
*14217 FILLER_17_203
*14218 FILLER_17_206
*14219 FILLER_17_209
*14220 FILLER_17_21
*14221 FILLER_17_212
*14222 FILLER_17_215
*14223 FILLER_17_218
*14224 FILLER_17_221
*14225 FILLER_17_225
*14226 FILLER_17_228
*14227 FILLER_17_231
*14228 FILLER_17_234
*14229 FILLER_17_237
*14230 FILLER_17_24
*14231 FILLER_17_240
*14232 FILLER_17_243
*14233 FILLER_17_246
*14234 FILLER_17_249
*14235 FILLER_17_253
*14236 FILLER_17_256
*14237 FILLER_17_259
*14238 FILLER_17_262
*14239 FILLER_17_265
*14240 FILLER_17_268
*14241 FILLER_17_27
*14242 FILLER_17_271
*14243 FILLER_17_274
*14244 FILLER_17_277
*14245 FILLER_17_281
*14246 FILLER_17_284
*14247 FILLER_17_287
*14248 FILLER_17_29
*14249 FILLER_17_290
*14250 FILLER_17_293
*14251 FILLER_17_296
*14252 FILLER_17_299
*14253 FILLER_17_3
*14254 FILLER_17_302
*14255 FILLER_17_305
*14256 FILLER_17_309
*14257 FILLER_17_312
*14258 FILLER_17_315
*14259 FILLER_17_318
*14260 FILLER_17_32
*14261 FILLER_17_321
*14262 FILLER_17_324
*14263 FILLER_17_327
*14264 FILLER_17_330
*14265 FILLER_17_333
*14266 FILLER_17_337
*14267 FILLER_17_340
*14268 FILLER_17_343
*14269 FILLER_17_346
*14270 FILLER_17_349
*14271 FILLER_17_35
*14272 FILLER_17_352
*14273 FILLER_17_355
*14274 FILLER_17_358
*14275 FILLER_17_361
*14276 FILLER_17_365
*14277 FILLER_17_368
*14278 FILLER_17_371
*14279 FILLER_17_374
*14280 FILLER_17_377
*14281 FILLER_17_38
*14282 FILLER_17_380
*14283 FILLER_17_383
*14284 FILLER_17_386
*14285 FILLER_17_389
*14286 FILLER_17_393
*14287 FILLER_17_396
*14288 FILLER_17_399
*14289 FILLER_17_402
*14290 FILLER_17_405
*14291 FILLER_17_408
*14292 FILLER_17_41
*14293 FILLER_17_411
*14294 FILLER_17_414
*14295 FILLER_17_417
*14296 FILLER_17_421
*14297 FILLER_17_424
*14298 FILLER_17_427
*14299 FILLER_17_430
*14300 FILLER_17_433
*14301 FILLER_17_436
*14302 FILLER_17_439
*14303 FILLER_17_44
*14304 FILLER_17_442
*14305 FILLER_17_445
*14306 FILLER_17_449
*14307 FILLER_17_452
*14308 FILLER_17_455
*14309 FILLER_17_458
*14310 FILLER_17_461
*14311 FILLER_17_464
*14312 FILLER_17_467
*14313 FILLER_17_47
*14314 FILLER_17_470
*14315 FILLER_17_473
*14316 FILLER_17_477
*14317 FILLER_17_480
*14318 FILLER_17_483
*14319 FILLER_17_486
*14320 FILLER_17_489
*14321 FILLER_17_492
*14322 FILLER_17_495
*14323 FILLER_17_498
*14324 FILLER_17_50
*14325 FILLER_17_501
*14326 FILLER_17_505
*14327 FILLER_17_508
*14328 FILLER_17_511
*14329 FILLER_17_514
*14330 FILLER_17_517
*14331 FILLER_17_520
*14332 FILLER_17_523
*14333 FILLER_17_526
*14334 FILLER_17_529
*14335 FILLER_17_53
*14336 FILLER_17_533
*14337 FILLER_17_536
*14338 FILLER_17_539
*14339 FILLER_17_542
*14340 FILLER_17_545
*14341 FILLER_17_548
*14342 FILLER_17_551
*14343 FILLER_17_554
*14344 FILLER_17_557
*14345 FILLER_17_561
*14346 FILLER_17_564
*14347 FILLER_17_567
*14348 FILLER_17_57
*14349 FILLER_17_570
*14350 FILLER_17_573
*14351 FILLER_17_576
*14352 FILLER_17_579
*14353 FILLER_17_582
*14354 FILLER_17_585
*14355 FILLER_17_589
*14356 FILLER_17_592
*14357 FILLER_17_595
*14358 FILLER_17_598
*14359 FILLER_17_6
*14360 FILLER_17_60
*14361 FILLER_17_601
*14362 FILLER_17_604
*14363 FILLER_17_607
*14364 FILLER_17_610
*14365 FILLER_17_613
*14366 FILLER_17_617
*14367 FILLER_17_620
*14368 FILLER_17_623
*14369 FILLER_17_626
*14370 FILLER_17_629
*14371 FILLER_17_63
*14372 FILLER_17_632
*14373 FILLER_17_635
*14374 FILLER_17_638
*14375 FILLER_17_641
*14376 FILLER_17_645
*14377 FILLER_17_648
*14378 FILLER_17_651
*14379 FILLER_17_654
*14380 FILLER_17_657
*14381 FILLER_17_66
*14382 FILLER_17_660
*14383 FILLER_17_663
*14384 FILLER_17_666
*14385 FILLER_17_669
*14386 FILLER_17_673
*14387 FILLER_17_676
*14388 FILLER_17_679
*14389 FILLER_17_682
*14390 FILLER_17_685
*14391 FILLER_17_688
*14392 FILLER_17_69
*14393 FILLER_17_691
*14394 FILLER_17_694
*14395 FILLER_17_697
*14396 FILLER_17_701
*14397 FILLER_17_704
*14398 FILLER_17_707
*14399 FILLER_17_710
*14400 FILLER_17_713
*14401 FILLER_17_716
*14402 FILLER_17_719
*14403 FILLER_17_72
*14404 FILLER_17_722
*14405 FILLER_17_725
*14406 FILLER_17_729
*14407 FILLER_17_732
*14408 FILLER_17_735
*14409 FILLER_17_738
*14410 FILLER_17_741
*14411 FILLER_17_744
*14412 FILLER_17_747
*14413 FILLER_17_75
*14414 FILLER_17_750
*14415 FILLER_17_753
*14416 FILLER_17_757
*14417 FILLER_17_760
*14418 FILLER_17_763
*14419 FILLER_17_766
*14420 FILLER_17_769
*14421 FILLER_17_772
*14422 FILLER_17_775
*14423 FILLER_17_778
*14424 FILLER_17_78
*14425 FILLER_17_781
*14426 FILLER_17_785
*14427 FILLER_17_788
*14428 FILLER_17_791
*14429 FILLER_17_794
*14430 FILLER_17_797
*14431 FILLER_17_800
*14432 FILLER_17_803
*14433 FILLER_17_806
*14434 FILLER_17_809
*14435 FILLER_17_81
*14436 FILLER_17_813
*14437 FILLER_17_816
*14438 FILLER_17_819
*14439 FILLER_17_822
*14440 FILLER_17_825
*14441 FILLER_17_828
*14442 FILLER_17_831
*14443 FILLER_17_834
*14444 FILLER_17_837
*14445 FILLER_17_841
*14446 FILLER_17_844
*14447 FILLER_17_847
*14448 FILLER_17_85
*14449 FILLER_17_850
*14450 FILLER_17_853
*14451 FILLER_17_856
*14452 FILLER_17_859
*14453 FILLER_17_862
*14454 FILLER_17_865
*14455 FILLER_17_869
*14456 FILLER_17_872
*14457 FILLER_17_875
*14458 FILLER_17_878
*14459 FILLER_17_88
*14460 FILLER_17_881
*14461 FILLER_17_884
*14462 FILLER_17_887
*14463 FILLER_17_890
*14464 FILLER_17_893
*14465 FILLER_17_897
*14466 FILLER_17_9
*14467 FILLER_17_900
*14468 FILLER_17_903
*14469 FILLER_17_906
*14470 FILLER_17_909
*14471 FILLER_17_91
*14472 FILLER_17_912
*14473 FILLER_17_915
*14474 FILLER_17_918
*14475 FILLER_17_921
*14476 FILLER_17_925
*14477 FILLER_17_928
*14478 FILLER_17_931
*14479 FILLER_17_934
*14480 FILLER_17_937
*14481 FILLER_17_94
*14482 FILLER_17_940
*14483 FILLER_17_943
*14484 FILLER_17_946
*14485 FILLER_17_949
*14486 FILLER_17_953
*14487 FILLER_17_956
*14488 FILLER_17_959
*14489 FILLER_17_962
*14490 FILLER_17_965
*14491 FILLER_17_968
*14492 FILLER_17_97
*14493 FILLER_17_971
*14494 FILLER_17_974
*14495 FILLER_17_977
*14496 FILLER_17_981
*14497 FILLER_17_984
*14498 FILLER_17_987
*14499 FILLER_17_990
*14500 FILLER_17_993
*14501 FILLER_17_996
*14502 FILLER_17_999
*14503 FILLER_180_100
*14504 FILLER_180_1002
*14505 FILLER_180_1005
*14506 FILLER_180_1008
*14507 FILLER_180_1011
*14508 FILLER_180_1014
*14509 FILLER_180_1017
*14510 FILLER_180_1020
*14511 FILLER_180_1023
*14512 FILLER_180_1026
*14513 FILLER_180_1029
*14514 FILLER_180_103
*14515 FILLER_180_1032
*14516 FILLER_180_1035
*14517 FILLER_180_1037
*14518 FILLER_180_1040
*14519 FILLER_180_1043
*14520 FILLER_180_1046
*14521 FILLER_180_1049
*14522 FILLER_180_1052
*14523 FILLER_180_1055
*14524 FILLER_180_1058
*14525 FILLER_180_106
*14526 FILLER_180_1061
*14527 FILLER_180_1064
*14528 FILLER_180_1067
*14529 FILLER_180_1070
*14530 FILLER_180_1073
*14531 FILLER_180_1076
*14532 FILLER_180_1079
*14533 FILLER_180_1082
*14534 FILLER_180_1085
*14535 FILLER_180_1088
*14536 FILLER_180_109
*14537 FILLER_180_1091
*14538 FILLER_180_1093
*14539 FILLER_180_1096
*14540 FILLER_180_1099
*14541 FILLER_180_1102
*14542 FILLER_180_1105
*14543 FILLER_180_1108
*14544 FILLER_180_1111
*14545 FILLER_180_1114
*14546 FILLER_180_1117
*14547 FILLER_180_112
*14548 FILLER_180_1120
*14549 FILLER_180_1123
*14550 FILLER_180_1126
*14551 FILLER_180_1129
*14552 FILLER_180_1132
*14553 FILLER_180_1135
*14554 FILLER_180_1138
*14555 FILLER_180_1141
*14556 FILLER_180_1144
*14557 FILLER_180_1147
*14558 FILLER_180_1149
*14559 FILLER_180_115
*14560 FILLER_180_1152
*14561 FILLER_180_1155
*14562 FILLER_180_1158
*14563 FILLER_180_1161
*14564 FILLER_180_1164
*14565 FILLER_180_1167
*14566 FILLER_180_1170
*14567 FILLER_180_1173
*14568 FILLER_180_1176
*14569 FILLER_180_1179
*14570 FILLER_180_118
*14571 FILLER_180_1182
*14572 FILLER_180_1185
*14573 FILLER_180_1188
*14574 FILLER_180_1191
*14575 FILLER_180_1194
*14576 FILLER_180_1197
*14577 FILLER_180_12
*14578 FILLER_180_1200
*14579 FILLER_180_1203
*14580 FILLER_180_1205
*14581 FILLER_180_1208
*14582 FILLER_180_121
*14583 FILLER_180_1211
*14584 FILLER_180_1214
*14585 FILLER_180_1217
*14586 FILLER_180_1220
*14587 FILLER_180_1223
*14588 FILLER_180_1226
*14589 FILLER_180_1229
*14590 FILLER_180_1232
*14591 FILLER_180_1235
*14592 FILLER_180_1238
*14593 FILLER_180_124
*14594 FILLER_180_1241
*14595 FILLER_180_1244
*14596 FILLER_180_1247
*14597 FILLER_180_1250
*14598 FILLER_180_1253
*14599 FILLER_180_1256
*14600 FILLER_180_1259
*14601 FILLER_180_1261
*14602 FILLER_180_1264
*14603 FILLER_180_1267
*14604 FILLER_180_127
*14605 FILLER_180_1270
*14606 FILLER_180_1273
*14607 FILLER_180_1276
*14608 FILLER_180_1279
*14609 FILLER_180_1282
*14610 FILLER_180_1285
*14611 FILLER_180_1288
*14612 FILLER_180_1291
*14613 FILLER_180_1294
*14614 FILLER_180_1297
*14615 FILLER_180_130
*14616 FILLER_180_1300
*14617 FILLER_180_1303
*14618 FILLER_180_1306
*14619 FILLER_180_1309
*14620 FILLER_180_1312
*14621 FILLER_180_1315
*14622 FILLER_180_1317
*14623 FILLER_180_1320
*14624 FILLER_180_1323
*14625 FILLER_180_1326
*14626 FILLER_180_1329
*14627 FILLER_180_133
*14628 FILLER_180_1332
*14629 FILLER_180_1335
*14630 FILLER_180_1338
*14631 FILLER_180_1341
*14632 FILLER_180_1344
*14633 FILLER_180_1347
*14634 FILLER_180_1350
*14635 FILLER_180_1353
*14636 FILLER_180_1356
*14637 FILLER_180_1359
*14638 FILLER_180_136
*14639 FILLER_180_1362
*14640 FILLER_180_139
*14641 FILLER_180_141
*14642 FILLER_180_144
*14643 FILLER_180_147
*14644 FILLER_180_15
*14645 FILLER_180_150
*14646 FILLER_180_153
*14647 FILLER_180_156
*14648 FILLER_180_159
*14649 FILLER_180_162
*14650 FILLER_180_165
*14651 FILLER_180_168
*14652 FILLER_180_171
*14653 FILLER_180_174
*14654 FILLER_180_177
*14655 FILLER_180_18
*14656 FILLER_180_180
*14657 FILLER_180_183
*14658 FILLER_180_186
*14659 FILLER_180_189
*14660 FILLER_180_192
*14661 FILLER_180_195
*14662 FILLER_180_197
*14663 FILLER_180_200
*14664 FILLER_180_203
*14665 FILLER_180_206
*14666 FILLER_180_209
*14667 FILLER_180_21
*14668 FILLER_180_212
*14669 FILLER_180_215
*14670 FILLER_180_218
*14671 FILLER_180_221
*14672 FILLER_180_224
*14673 FILLER_180_227
*14674 FILLER_180_230
*14675 FILLER_180_233
*14676 FILLER_180_236
*14677 FILLER_180_239
*14678 FILLER_180_24
*14679 FILLER_180_242
*14680 FILLER_180_245
*14681 FILLER_180_248
*14682 FILLER_180_251
*14683 FILLER_180_253
*14684 FILLER_180_256
*14685 FILLER_180_259
*14686 FILLER_180_262
*14687 FILLER_180_265
*14688 FILLER_180_268
*14689 FILLER_180_27
*14690 FILLER_180_271
*14691 FILLER_180_274
*14692 FILLER_180_277
*14693 FILLER_180_280
*14694 FILLER_180_283
*14695 FILLER_180_286
*14696 FILLER_180_289
*14697 FILLER_180_29
*14698 FILLER_180_292
*14699 FILLER_180_295
*14700 FILLER_180_298
*14701 FILLER_180_3
*14702 FILLER_180_301
*14703 FILLER_180_304
*14704 FILLER_180_307
*14705 FILLER_180_309
*14706 FILLER_180_312
*14707 FILLER_180_315
*14708 FILLER_180_318
*14709 FILLER_180_32
*14710 FILLER_180_321
*14711 FILLER_180_324
*14712 FILLER_180_327
*14713 FILLER_180_330
*14714 FILLER_180_333
*14715 FILLER_180_336
*14716 FILLER_180_339
*14717 FILLER_180_342
*14718 FILLER_180_345
*14719 FILLER_180_348
*14720 FILLER_180_35
*14721 FILLER_180_351
*14722 FILLER_180_354
*14723 FILLER_180_357
*14724 FILLER_180_360
*14725 FILLER_180_363
*14726 FILLER_180_365
*14727 FILLER_180_368
*14728 FILLER_180_371
*14729 FILLER_180_374
*14730 FILLER_180_377
*14731 FILLER_180_38
*14732 FILLER_180_380
*14733 FILLER_180_383
*14734 FILLER_180_386
*14735 FILLER_180_389
*14736 FILLER_180_392
*14737 FILLER_180_395
*14738 FILLER_180_398
*14739 FILLER_180_401
*14740 FILLER_180_404
*14741 FILLER_180_407
*14742 FILLER_180_41
*14743 FILLER_180_410
*14744 FILLER_180_413
*14745 FILLER_180_416
*14746 FILLER_180_419
*14747 FILLER_180_421
*14748 FILLER_180_424
*14749 FILLER_180_427
*14750 FILLER_180_430
*14751 FILLER_180_433
*14752 FILLER_180_436
*14753 FILLER_180_439
*14754 FILLER_180_44
*14755 FILLER_180_442
*14756 FILLER_180_445
*14757 FILLER_180_448
*14758 FILLER_180_451
*14759 FILLER_180_454
*14760 FILLER_180_457
*14761 FILLER_180_460
*14762 FILLER_180_463
*14763 FILLER_180_466
*14764 FILLER_180_469
*14765 FILLER_180_47
*14766 FILLER_180_472
*14767 FILLER_180_475
*14768 FILLER_180_477
*14769 FILLER_180_480
*14770 FILLER_180_483
*14771 FILLER_180_486
*14772 FILLER_180_489
*14773 FILLER_180_492
*14774 FILLER_180_495
*14775 FILLER_180_498
*14776 FILLER_180_50
*14777 FILLER_180_501
*14778 FILLER_180_504
*14779 FILLER_180_507
*14780 FILLER_180_510
*14781 FILLER_180_513
*14782 FILLER_180_516
*14783 FILLER_180_519
*14784 FILLER_180_522
*14785 FILLER_180_525
*14786 FILLER_180_528
*14787 FILLER_180_53
*14788 FILLER_180_531
*14789 FILLER_180_533
*14790 FILLER_180_536
*14791 FILLER_180_539
*14792 FILLER_180_542
*14793 FILLER_180_545
*14794 FILLER_180_548
*14795 FILLER_180_551
*14796 FILLER_180_554
*14797 FILLER_180_557
*14798 FILLER_180_56
*14799 FILLER_180_560
*14800 FILLER_180_563
*14801 FILLER_180_566
*14802 FILLER_180_569
*14803 FILLER_180_572
*14804 FILLER_180_575
*14805 FILLER_180_578
*14806 FILLER_180_581
*14807 FILLER_180_584
*14808 FILLER_180_587
*14809 FILLER_180_589
*14810 FILLER_180_59
*14811 FILLER_180_592
*14812 FILLER_180_595
*14813 FILLER_180_598
*14814 FILLER_180_6
*14815 FILLER_180_601
*14816 FILLER_180_604
*14817 FILLER_180_607
*14818 FILLER_180_610
*14819 FILLER_180_613
*14820 FILLER_180_616
*14821 FILLER_180_619
*14822 FILLER_180_62
*14823 FILLER_180_622
*14824 FILLER_180_625
*14825 FILLER_180_628
*14826 FILLER_180_631
*14827 FILLER_180_634
*14828 FILLER_180_637
*14829 FILLER_180_640
*14830 FILLER_180_643
*14831 FILLER_180_645
*14832 FILLER_180_648
*14833 FILLER_180_65
*14834 FILLER_180_651
*14835 FILLER_180_654
*14836 FILLER_180_657
*14837 FILLER_180_660
*14838 FILLER_180_663
*14839 FILLER_180_666
*14840 FILLER_180_669
*14841 FILLER_180_672
*14842 FILLER_180_675
*14843 FILLER_180_678
*14844 FILLER_180_68
*14845 FILLER_180_681
*14846 FILLER_180_684
*14847 FILLER_180_687
*14848 FILLER_180_690
*14849 FILLER_180_693
*14850 FILLER_180_696
*14851 FILLER_180_699
*14852 FILLER_180_701
*14853 FILLER_180_704
*14854 FILLER_180_707
*14855 FILLER_180_71
*14856 FILLER_180_710
*14857 FILLER_180_713
*14858 FILLER_180_716
*14859 FILLER_180_719
*14860 FILLER_180_722
*14861 FILLER_180_725
*14862 FILLER_180_728
*14863 FILLER_180_731
*14864 FILLER_180_734
*14865 FILLER_180_737
*14866 FILLER_180_74
*14867 FILLER_180_740
*14868 FILLER_180_743
*14869 FILLER_180_746
*14870 FILLER_180_749
*14871 FILLER_180_752
*14872 FILLER_180_755
*14873 FILLER_180_757
*14874 FILLER_180_760
*14875 FILLER_180_763
*14876 FILLER_180_766
*14877 FILLER_180_769
*14878 FILLER_180_77
*14879 FILLER_180_772
*14880 FILLER_180_775
*14881 FILLER_180_778
*14882 FILLER_180_781
*14883 FILLER_180_784
*14884 FILLER_180_787
*14885 FILLER_180_790
*14886 FILLER_180_793
*14887 FILLER_180_796
*14888 FILLER_180_799
*14889 FILLER_180_80
*14890 FILLER_180_802
*14891 FILLER_180_805
*14892 FILLER_180_808
*14893 FILLER_180_811
*14894 FILLER_180_813
*14895 FILLER_180_816
*14896 FILLER_180_819
*14897 FILLER_180_822
*14898 FILLER_180_825
*14899 FILLER_180_828
*14900 FILLER_180_83
*14901 FILLER_180_831
*14902 FILLER_180_834
*14903 FILLER_180_837
*14904 FILLER_180_840
*14905 FILLER_180_843
*14906 FILLER_180_846
*14907 FILLER_180_849
*14908 FILLER_180_85
*14909 FILLER_180_852
*14910 FILLER_180_855
*14911 FILLER_180_858
*14912 FILLER_180_861
*14913 FILLER_180_864
*14914 FILLER_180_867
*14915 FILLER_180_869
*14916 FILLER_180_872
*14917 FILLER_180_875
*14918 FILLER_180_878
*14919 FILLER_180_88
*14920 FILLER_180_881
*14921 FILLER_180_884
*14922 FILLER_180_887
*14923 FILLER_180_890
*14924 FILLER_180_893
*14925 FILLER_180_896
*14926 FILLER_180_899
*14927 FILLER_180_9
*14928 FILLER_180_902
*14929 FILLER_180_905
*14930 FILLER_180_908
*14931 FILLER_180_91
*14932 FILLER_180_911
*14933 FILLER_180_914
*14934 FILLER_180_917
*14935 FILLER_180_920
*14936 FILLER_180_923
*14937 FILLER_180_925
*14938 FILLER_180_928
*14939 FILLER_180_931
*14940 FILLER_180_934
*14941 FILLER_180_937
*14942 FILLER_180_94
*14943 FILLER_180_940
*14944 FILLER_180_943
*14945 FILLER_180_946
*14946 FILLER_180_949
*14947 FILLER_180_952
*14948 FILLER_180_955
*14949 FILLER_180_958
*14950 FILLER_180_961
*14951 FILLER_180_964
*14952 FILLER_180_967
*14953 FILLER_180_97
*14954 FILLER_180_970
*14955 FILLER_180_973
*14956 FILLER_180_976
*14957 FILLER_180_979
*14958 FILLER_180_981
*14959 FILLER_180_984
*14960 FILLER_180_987
*14961 FILLER_180_990
*14962 FILLER_180_993
*14963 FILLER_180_996
*14964 FILLER_180_999
*14965 FILLER_181_1001
*14966 FILLER_181_1004
*14967 FILLER_181_1007
*14968 FILLER_181_1009
*14969 FILLER_181_1012
*14970 FILLER_181_1015
*14971 FILLER_181_1018
*14972 FILLER_181_102
*14973 FILLER_181_1021
*14974 FILLER_181_1024
*14975 FILLER_181_1027
*14976 FILLER_181_1030
*14977 FILLER_181_1033
*14978 FILLER_181_1036
*14979 FILLER_181_1039
*14980 FILLER_181_1042
*14981 FILLER_181_1045
*14982 FILLER_181_1048
*14983 FILLER_181_105
*14984 FILLER_181_1051
*14985 FILLER_181_1054
*14986 FILLER_181_1057
*14987 FILLER_181_1060
*14988 FILLER_181_1063
*14989 FILLER_181_1065
*14990 FILLER_181_1068
*14991 FILLER_181_1071
*14992 FILLER_181_1074
*14993 FILLER_181_1077
*14994 FILLER_181_108
*14995 FILLER_181_1080
*14996 FILLER_181_1083
*14997 FILLER_181_1086
*14998 FILLER_181_1089
*14999 FILLER_181_1092
*15000 FILLER_181_1095
*15001 FILLER_181_1098
*15002 FILLER_181_1101
*15003 FILLER_181_1104
*15004 FILLER_181_1107
*15005 FILLER_181_111
*15006 FILLER_181_1110
*15007 FILLER_181_1113
*15008 FILLER_181_1116
*15009 FILLER_181_1119
*15010 FILLER_181_1121
*15011 FILLER_181_1124
*15012 FILLER_181_1127
*15013 FILLER_181_113
*15014 FILLER_181_1130
*15015 FILLER_181_1133
*15016 FILLER_181_1136
*15017 FILLER_181_1139
*15018 FILLER_181_1142
*15019 FILLER_181_1145
*15020 FILLER_181_1148
*15021 FILLER_181_1151
*15022 FILLER_181_1154
*15023 FILLER_181_1157
*15024 FILLER_181_116
*15025 FILLER_181_1160
*15026 FILLER_181_1163
*15027 FILLER_181_1166
*15028 FILLER_181_1169
*15029 FILLER_181_1172
*15030 FILLER_181_1175
*15031 FILLER_181_1177
*15032 FILLER_181_1180
*15033 FILLER_181_1183
*15034 FILLER_181_1186
*15035 FILLER_181_1189
*15036 FILLER_181_119
*15037 FILLER_181_1192
*15038 FILLER_181_1195
*15039 FILLER_181_1198
*15040 FILLER_181_12
*15041 FILLER_181_1201
*15042 FILLER_181_1204
*15043 FILLER_181_1207
*15044 FILLER_181_1210
*15045 FILLER_181_1213
*15046 FILLER_181_1216
*15047 FILLER_181_1219
*15048 FILLER_181_122
*15049 FILLER_181_1222
*15050 FILLER_181_1225
*15051 FILLER_181_1228
*15052 FILLER_181_1231
*15053 FILLER_181_1233
*15054 FILLER_181_1236
*15055 FILLER_181_1239
*15056 FILLER_181_1242
*15057 FILLER_181_1245
*15058 FILLER_181_1248
*15059 FILLER_181_125
*15060 FILLER_181_1251
*15061 FILLER_181_1254
*15062 FILLER_181_1257
*15063 FILLER_181_1260
*15064 FILLER_181_1263
*15065 FILLER_181_1266
*15066 FILLER_181_1269
*15067 FILLER_181_1272
*15068 FILLER_181_1275
*15069 FILLER_181_1278
*15070 FILLER_181_128
*15071 FILLER_181_1281
*15072 FILLER_181_1284
*15073 FILLER_181_1287
*15074 FILLER_181_1289
*15075 FILLER_181_1292
*15076 FILLER_181_1295
*15077 FILLER_181_1298
*15078 FILLER_181_1301
*15079 FILLER_181_1304
*15080 FILLER_181_1307
*15081 FILLER_181_131
*15082 FILLER_181_1310
*15083 FILLER_181_1313
*15084 FILLER_181_1316
*15085 FILLER_181_1319
*15086 FILLER_181_1322
*15087 FILLER_181_1325
*15088 FILLER_181_1328
*15089 FILLER_181_1331
*15090 FILLER_181_1334
*15091 FILLER_181_1337
*15092 FILLER_181_134
*15093 FILLER_181_1340
*15094 FILLER_181_1343
*15095 FILLER_181_1345
*15096 FILLER_181_1348
*15097 FILLER_181_1351
*15098 FILLER_181_1354
*15099 FILLER_181_1357
*15100 FILLER_181_1360
*15101 FILLER_181_1363
*15102 FILLER_181_137
*15103 FILLER_181_140
*15104 FILLER_181_143
*15105 FILLER_181_146
*15106 FILLER_181_149
*15107 FILLER_181_15
*15108 FILLER_181_152
*15109 FILLER_181_155
*15110 FILLER_181_158
*15111 FILLER_181_161
*15112 FILLER_181_164
*15113 FILLER_181_167
*15114 FILLER_181_169
*15115 FILLER_181_172
*15116 FILLER_181_175
*15117 FILLER_181_178
*15118 FILLER_181_18
*15119 FILLER_181_181
*15120 FILLER_181_184
*15121 FILLER_181_187
*15122 FILLER_181_190
*15123 FILLER_181_193
*15124 FILLER_181_196
*15125 FILLER_181_199
*15126 FILLER_181_202
*15127 FILLER_181_205
*15128 FILLER_181_208
*15129 FILLER_181_21
*15130 FILLER_181_211
*15131 FILLER_181_214
*15132 FILLER_181_217
*15133 FILLER_181_220
*15134 FILLER_181_223
*15135 FILLER_181_225
*15136 FILLER_181_228
*15137 FILLER_181_231
*15138 FILLER_181_234
*15139 FILLER_181_237
*15140 FILLER_181_24
*15141 FILLER_181_240
*15142 FILLER_181_243
*15143 FILLER_181_246
*15144 FILLER_181_249
*15145 FILLER_181_252
*15146 FILLER_181_255
*15147 FILLER_181_258
*15148 FILLER_181_261
*15149 FILLER_181_264
*15150 FILLER_181_267
*15151 FILLER_181_27
*15152 FILLER_181_270
*15153 FILLER_181_273
*15154 FILLER_181_276
*15155 FILLER_181_279
*15156 FILLER_181_281
*15157 FILLER_181_284
*15158 FILLER_181_287
*15159 FILLER_181_290
*15160 FILLER_181_293
*15161 FILLER_181_296
*15162 FILLER_181_299
*15163 FILLER_181_3
*15164 FILLER_181_30
*15165 FILLER_181_302
*15166 FILLER_181_305
*15167 FILLER_181_308
*15168 FILLER_181_311
*15169 FILLER_181_314
*15170 FILLER_181_317
*15171 FILLER_181_320
*15172 FILLER_181_323
*15173 FILLER_181_326
*15174 FILLER_181_329
*15175 FILLER_181_33
*15176 FILLER_181_332
*15177 FILLER_181_335
*15178 FILLER_181_337
*15179 FILLER_181_340
*15180 FILLER_181_343
*15181 FILLER_181_346
*15182 FILLER_181_349
*15183 FILLER_181_352
*15184 FILLER_181_355
*15185 FILLER_181_358
*15186 FILLER_181_36
*15187 FILLER_181_361
*15188 FILLER_181_364
*15189 FILLER_181_367
*15190 FILLER_181_370
*15191 FILLER_181_373
*15192 FILLER_181_376
*15193 FILLER_181_379
*15194 FILLER_181_382
*15195 FILLER_181_385
*15196 FILLER_181_388
*15197 FILLER_181_39
*15198 FILLER_181_391
*15199 FILLER_181_393
*15200 FILLER_181_396
*15201 FILLER_181_399
*15202 FILLER_181_402
*15203 FILLER_181_405
*15204 FILLER_181_408
*15205 FILLER_181_411
*15206 FILLER_181_414
*15207 FILLER_181_417
*15208 FILLER_181_42
*15209 FILLER_181_420
*15210 FILLER_181_423
*15211 FILLER_181_426
*15212 FILLER_181_429
*15213 FILLER_181_432
*15214 FILLER_181_435
*15215 FILLER_181_438
*15216 FILLER_181_441
*15217 FILLER_181_444
*15218 FILLER_181_447
*15219 FILLER_181_449
*15220 FILLER_181_45
*15221 FILLER_181_452
*15222 FILLER_181_455
*15223 FILLER_181_458
*15224 FILLER_181_461
*15225 FILLER_181_464
*15226 FILLER_181_467
*15227 FILLER_181_470
*15228 FILLER_181_473
*15229 FILLER_181_476
*15230 FILLER_181_479
*15231 FILLER_181_48
*15232 FILLER_181_482
*15233 FILLER_181_485
*15234 FILLER_181_488
*15235 FILLER_181_491
*15236 FILLER_181_494
*15237 FILLER_181_497
*15238 FILLER_181_500
*15239 FILLER_181_503
*15240 FILLER_181_505
*15241 FILLER_181_508
*15242 FILLER_181_51
*15243 FILLER_181_511
*15244 FILLER_181_514
*15245 FILLER_181_517
*15246 FILLER_181_520
*15247 FILLER_181_523
*15248 FILLER_181_526
*15249 FILLER_181_529
*15250 FILLER_181_532
*15251 FILLER_181_535
*15252 FILLER_181_538
*15253 FILLER_181_54
*15254 FILLER_181_541
*15255 FILLER_181_544
*15256 FILLER_181_547
*15257 FILLER_181_550
*15258 FILLER_181_553
*15259 FILLER_181_556
*15260 FILLER_181_559
*15261 FILLER_181_561
*15262 FILLER_181_564
*15263 FILLER_181_567
*15264 FILLER_181_57
*15265 FILLER_181_570
*15266 FILLER_181_573
*15267 FILLER_181_576
*15268 FILLER_181_579
*15269 FILLER_181_582
*15270 FILLER_181_585
*15271 FILLER_181_588
*15272 FILLER_181_591
*15273 FILLER_181_594
*15274 FILLER_181_597
*15275 FILLER_181_6
*15276 FILLER_181_60
*15277 FILLER_181_600
*15278 FILLER_181_603
*15279 FILLER_181_606
*15280 FILLER_181_609
*15281 FILLER_181_612
*15282 FILLER_181_615
*15283 FILLER_181_617
*15284 FILLER_181_620
*15285 FILLER_181_623
*15286 FILLER_181_626
*15287 FILLER_181_629
*15288 FILLER_181_63
*15289 FILLER_181_632
*15290 FILLER_181_635
*15291 FILLER_181_638
*15292 FILLER_181_641
*15293 FILLER_181_644
*15294 FILLER_181_647
*15295 FILLER_181_650
*15296 FILLER_181_653
*15297 FILLER_181_656
*15298 FILLER_181_659
*15299 FILLER_181_66
*15300 FILLER_181_662
*15301 FILLER_181_665
*15302 FILLER_181_668
*15303 FILLER_181_671
*15304 FILLER_181_673
*15305 FILLER_181_676
*15306 FILLER_181_679
*15307 FILLER_181_682
*15308 FILLER_181_685
*15309 FILLER_181_688
*15310 FILLER_181_69
*15311 FILLER_181_691
*15312 FILLER_181_694
*15313 FILLER_181_697
*15314 FILLER_181_700
*15315 FILLER_181_703
*15316 FILLER_181_706
*15317 FILLER_181_709
*15318 FILLER_181_712
*15319 FILLER_181_715
*15320 FILLER_181_718
*15321 FILLER_181_72
*15322 FILLER_181_721
*15323 FILLER_181_724
*15324 FILLER_181_727
*15325 FILLER_181_729
*15326 FILLER_181_732
*15327 FILLER_181_735
*15328 FILLER_181_738
*15329 FILLER_181_741
*15330 FILLER_181_744
*15331 FILLER_181_747
*15332 FILLER_181_75
*15333 FILLER_181_750
*15334 FILLER_181_753
*15335 FILLER_181_756
*15336 FILLER_181_759
*15337 FILLER_181_762
*15338 FILLER_181_765
*15339 FILLER_181_768
*15340 FILLER_181_771
*15341 FILLER_181_774
*15342 FILLER_181_777
*15343 FILLER_181_78
*15344 FILLER_181_780
*15345 FILLER_181_783
*15346 FILLER_181_785
*15347 FILLER_181_788
*15348 FILLER_181_791
*15349 FILLER_181_794
*15350 FILLER_181_797
*15351 FILLER_181_800
*15352 FILLER_181_803
*15353 FILLER_181_806
*15354 FILLER_181_809
*15355 FILLER_181_81
*15356 FILLER_181_812
*15357 FILLER_181_815
*15358 FILLER_181_818
*15359 FILLER_181_821
*15360 FILLER_181_824
*15361 FILLER_181_827
*15362 FILLER_181_830
*15363 FILLER_181_833
*15364 FILLER_181_836
*15365 FILLER_181_839
*15366 FILLER_181_84
*15367 FILLER_181_841
*15368 FILLER_181_844
*15369 FILLER_181_847
*15370 FILLER_181_850
*15371 FILLER_181_853
*15372 FILLER_181_856
*15373 FILLER_181_859
*15374 FILLER_181_862
*15375 FILLER_181_865
*15376 FILLER_181_868
*15377 FILLER_181_87
*15378 FILLER_181_871
*15379 FILLER_181_874
*15380 FILLER_181_877
*15381 FILLER_181_880
*15382 FILLER_181_883
*15383 FILLER_181_886
*15384 FILLER_181_889
*15385 FILLER_181_892
*15386 FILLER_181_895
*15387 FILLER_181_897
*15388 FILLER_181_9
*15389 FILLER_181_90
*15390 FILLER_181_900
*15391 FILLER_181_903
*15392 FILLER_181_906
*15393 FILLER_181_909
*15394 FILLER_181_912
*15395 FILLER_181_915
*15396 FILLER_181_918
*15397 FILLER_181_921
*15398 FILLER_181_924
*15399 FILLER_181_927
*15400 FILLER_181_93
*15401 FILLER_181_930
*15402 FILLER_181_933
*15403 FILLER_181_936
*15404 FILLER_181_939
*15405 FILLER_181_942
*15406 FILLER_181_945
*15407 FILLER_181_948
*15408 FILLER_181_951
*15409 FILLER_181_953
*15410 FILLER_181_956
*15411 FILLER_181_959
*15412 FILLER_181_96
*15413 FILLER_181_962
*15414 FILLER_181_965
*15415 FILLER_181_968
*15416 FILLER_181_971
*15417 FILLER_181_974
*15418 FILLER_181_977
*15419 FILLER_181_980
*15420 FILLER_181_983
*15421 FILLER_181_986
*15422 FILLER_181_989
*15423 FILLER_181_99
*15424 FILLER_181_992
*15425 FILLER_181_995
*15426 FILLER_181_998
*15427 FILLER_182_100
*15428 FILLER_182_1002
*15429 FILLER_182_1005
*15430 FILLER_182_1008
*15431 FILLER_182_1011
*15432 FILLER_182_1014
*15433 FILLER_182_1017
*15434 FILLER_182_1020
*15435 FILLER_182_1023
*15436 FILLER_182_1026
*15437 FILLER_182_1029
*15438 FILLER_182_103
*15439 FILLER_182_1032
*15440 FILLER_182_1035
*15441 FILLER_182_1037
*15442 FILLER_182_1040
*15443 FILLER_182_1043
*15444 FILLER_182_1046
*15445 FILLER_182_1049
*15446 FILLER_182_1052
*15447 FILLER_182_1055
*15448 FILLER_182_1058
*15449 FILLER_182_106
*15450 FILLER_182_1061
*15451 FILLER_182_1064
*15452 FILLER_182_1067
*15453 FILLER_182_1070
*15454 FILLER_182_1073
*15455 FILLER_182_1076
*15456 FILLER_182_1079
*15457 FILLER_182_1082
*15458 FILLER_182_1085
*15459 FILLER_182_1088
*15460 FILLER_182_109
*15461 FILLER_182_1091
*15462 FILLER_182_1093
*15463 FILLER_182_1096
*15464 FILLER_182_1099
*15465 FILLER_182_1102
*15466 FILLER_182_1105
*15467 FILLER_182_1108
*15468 FILLER_182_1111
*15469 FILLER_182_1114
*15470 FILLER_182_1117
*15471 FILLER_182_112
*15472 FILLER_182_1120
*15473 FILLER_182_1123
*15474 FILLER_182_1126
*15475 FILLER_182_1129
*15476 FILLER_182_1132
*15477 FILLER_182_1135
*15478 FILLER_182_1138
*15479 FILLER_182_1141
*15480 FILLER_182_1144
*15481 FILLER_182_1147
*15482 FILLER_182_1149
*15483 FILLER_182_115
*15484 FILLER_182_1152
*15485 FILLER_182_1155
*15486 FILLER_182_1158
*15487 FILLER_182_1161
*15488 FILLER_182_1164
*15489 FILLER_182_1167
*15490 FILLER_182_1170
*15491 FILLER_182_1173
*15492 FILLER_182_1176
*15493 FILLER_182_1179
*15494 FILLER_182_118
*15495 FILLER_182_1182
*15496 FILLER_182_1185
*15497 FILLER_182_1188
*15498 FILLER_182_1191
*15499 FILLER_182_1194
*15500 FILLER_182_1197
*15501 FILLER_182_12
*15502 FILLER_182_1200
*15503 FILLER_182_1203
*15504 FILLER_182_1205
*15505 FILLER_182_1208
*15506 FILLER_182_121
*15507 FILLER_182_1211
*15508 FILLER_182_1214
*15509 FILLER_182_1217
*15510 FILLER_182_1220
*15511 FILLER_182_1223
*15512 FILLER_182_1226
*15513 FILLER_182_1229
*15514 FILLER_182_1232
*15515 FILLER_182_1235
*15516 FILLER_182_1238
*15517 FILLER_182_124
*15518 FILLER_182_1241
*15519 FILLER_182_1244
*15520 FILLER_182_1247
*15521 FILLER_182_1250
*15522 FILLER_182_1253
*15523 FILLER_182_1256
*15524 FILLER_182_1259
*15525 FILLER_182_1261
*15526 FILLER_182_1264
*15527 FILLER_182_1267
*15528 FILLER_182_127
*15529 FILLER_182_1270
*15530 FILLER_182_1273
*15531 FILLER_182_1276
*15532 FILLER_182_1279
*15533 FILLER_182_1282
*15534 FILLER_182_1285
*15535 FILLER_182_1288
*15536 FILLER_182_1291
*15537 FILLER_182_1294
*15538 FILLER_182_1297
*15539 FILLER_182_130
*15540 FILLER_182_1300
*15541 FILLER_182_1303
*15542 FILLER_182_1306
*15543 FILLER_182_1309
*15544 FILLER_182_1312
*15545 FILLER_182_1315
*15546 FILLER_182_1317
*15547 FILLER_182_1320
*15548 FILLER_182_1323
*15549 FILLER_182_1326
*15550 FILLER_182_1329
*15551 FILLER_182_133
*15552 FILLER_182_1332
*15553 FILLER_182_1335
*15554 FILLER_182_1338
*15555 FILLER_182_1341
*15556 FILLER_182_1344
*15557 FILLER_182_1347
*15558 FILLER_182_1350
*15559 FILLER_182_1353
*15560 FILLER_182_1356
*15561 FILLER_182_1359
*15562 FILLER_182_136
*15563 FILLER_182_1362
*15564 FILLER_182_139
*15565 FILLER_182_141
*15566 FILLER_182_144
*15567 FILLER_182_147
*15568 FILLER_182_15
*15569 FILLER_182_150
*15570 FILLER_182_153
*15571 FILLER_182_156
*15572 FILLER_182_159
*15573 FILLER_182_162
*15574 FILLER_182_165
*15575 FILLER_182_168
*15576 FILLER_182_171
*15577 FILLER_182_174
*15578 FILLER_182_177
*15579 FILLER_182_18
*15580 FILLER_182_180
*15581 FILLER_182_183
*15582 FILLER_182_186
*15583 FILLER_182_189
*15584 FILLER_182_192
*15585 FILLER_182_195
*15586 FILLER_182_197
*15587 FILLER_182_200
*15588 FILLER_182_203
*15589 FILLER_182_206
*15590 FILLER_182_209
*15591 FILLER_182_21
*15592 FILLER_182_212
*15593 FILLER_182_215
*15594 FILLER_182_218
*15595 FILLER_182_221
*15596 FILLER_182_224
*15597 FILLER_182_227
*15598 FILLER_182_230
*15599 FILLER_182_233
*15600 FILLER_182_236
*15601 FILLER_182_239
*15602 FILLER_182_24
*15603 FILLER_182_242
*15604 FILLER_182_245
*15605 FILLER_182_248
*15606 FILLER_182_251
*15607 FILLER_182_253
*15608 FILLER_182_256
*15609 FILLER_182_259
*15610 FILLER_182_262
*15611 FILLER_182_265
*15612 FILLER_182_268
*15613 FILLER_182_27
*15614 FILLER_182_271
*15615 FILLER_182_274
*15616 FILLER_182_277
*15617 FILLER_182_280
*15618 FILLER_182_283
*15619 FILLER_182_286
*15620 FILLER_182_289
*15621 FILLER_182_29
*15622 FILLER_182_292
*15623 FILLER_182_295
*15624 FILLER_182_298
*15625 FILLER_182_3
*15626 FILLER_182_301
*15627 FILLER_182_304
*15628 FILLER_182_307
*15629 FILLER_182_309
*15630 FILLER_182_312
*15631 FILLER_182_315
*15632 FILLER_182_318
*15633 FILLER_182_32
*15634 FILLER_182_321
*15635 FILLER_182_324
*15636 FILLER_182_327
*15637 FILLER_182_330
*15638 FILLER_182_333
*15639 FILLER_182_336
*15640 FILLER_182_339
*15641 FILLER_182_342
*15642 FILLER_182_345
*15643 FILLER_182_348
*15644 FILLER_182_35
*15645 FILLER_182_351
*15646 FILLER_182_354
*15647 FILLER_182_357
*15648 FILLER_182_360
*15649 FILLER_182_363
*15650 FILLER_182_365
*15651 FILLER_182_368
*15652 FILLER_182_371
*15653 FILLER_182_374
*15654 FILLER_182_377
*15655 FILLER_182_38
*15656 FILLER_182_380
*15657 FILLER_182_383
*15658 FILLER_182_386
*15659 FILLER_182_389
*15660 FILLER_182_392
*15661 FILLER_182_395
*15662 FILLER_182_398
*15663 FILLER_182_401
*15664 FILLER_182_404
*15665 FILLER_182_407
*15666 FILLER_182_41
*15667 FILLER_182_410
*15668 FILLER_182_413
*15669 FILLER_182_416
*15670 FILLER_182_419
*15671 FILLER_182_421
*15672 FILLER_182_424
*15673 FILLER_182_427
*15674 FILLER_182_430
*15675 FILLER_182_433
*15676 FILLER_182_436
*15677 FILLER_182_439
*15678 FILLER_182_44
*15679 FILLER_182_442
*15680 FILLER_182_445
*15681 FILLER_182_448
*15682 FILLER_182_451
*15683 FILLER_182_454
*15684 FILLER_182_457
*15685 FILLER_182_460
*15686 FILLER_182_463
*15687 FILLER_182_466
*15688 FILLER_182_469
*15689 FILLER_182_47
*15690 FILLER_182_472
*15691 FILLER_182_475
*15692 FILLER_182_477
*15693 FILLER_182_480
*15694 FILLER_182_483
*15695 FILLER_182_486
*15696 FILLER_182_489
*15697 FILLER_182_492
*15698 FILLER_182_495
*15699 FILLER_182_498
*15700 FILLER_182_50
*15701 FILLER_182_501
*15702 FILLER_182_504
*15703 FILLER_182_507
*15704 FILLER_182_510
*15705 FILLER_182_513
*15706 FILLER_182_516
*15707 FILLER_182_519
*15708 FILLER_182_522
*15709 FILLER_182_525
*15710 FILLER_182_528
*15711 FILLER_182_53
*15712 FILLER_182_531
*15713 FILLER_182_533
*15714 FILLER_182_536
*15715 FILLER_182_539
*15716 FILLER_182_542
*15717 FILLER_182_545
*15718 FILLER_182_548
*15719 FILLER_182_551
*15720 FILLER_182_554
*15721 FILLER_182_557
*15722 FILLER_182_56
*15723 FILLER_182_560
*15724 FILLER_182_563
*15725 FILLER_182_566
*15726 FILLER_182_569
*15727 FILLER_182_572
*15728 FILLER_182_575
*15729 FILLER_182_578
*15730 FILLER_182_581
*15731 FILLER_182_584
*15732 FILLER_182_587
*15733 FILLER_182_589
*15734 FILLER_182_59
*15735 FILLER_182_592
*15736 FILLER_182_595
*15737 FILLER_182_598
*15738 FILLER_182_6
*15739 FILLER_182_601
*15740 FILLER_182_604
*15741 FILLER_182_607
*15742 FILLER_182_610
*15743 FILLER_182_613
*15744 FILLER_182_616
*15745 FILLER_182_619
*15746 FILLER_182_62
*15747 FILLER_182_622
*15748 FILLER_182_625
*15749 FILLER_182_628
*15750 FILLER_182_631
*15751 FILLER_182_634
*15752 FILLER_182_637
*15753 FILLER_182_640
*15754 FILLER_182_643
*15755 FILLER_182_645
*15756 FILLER_182_648
*15757 FILLER_182_65
*15758 FILLER_182_651
*15759 FILLER_182_654
*15760 FILLER_182_657
*15761 FILLER_182_660
*15762 FILLER_182_663
*15763 FILLER_182_666
*15764 FILLER_182_669
*15765 FILLER_182_672
*15766 FILLER_182_675
*15767 FILLER_182_678
*15768 FILLER_182_68
*15769 FILLER_182_681
*15770 FILLER_182_684
*15771 FILLER_182_687
*15772 FILLER_182_690
*15773 FILLER_182_693
*15774 FILLER_182_696
*15775 FILLER_182_699
*15776 FILLER_182_701
*15777 FILLER_182_704
*15778 FILLER_182_707
*15779 FILLER_182_71
*15780 FILLER_182_710
*15781 FILLER_182_713
*15782 FILLER_182_716
*15783 FILLER_182_719
*15784 FILLER_182_722
*15785 FILLER_182_725
*15786 FILLER_182_728
*15787 FILLER_182_731
*15788 FILLER_182_734
*15789 FILLER_182_737
*15790 FILLER_182_74
*15791 FILLER_182_740
*15792 FILLER_182_743
*15793 FILLER_182_746
*15794 FILLER_182_749
*15795 FILLER_182_752
*15796 FILLER_182_755
*15797 FILLER_182_757
*15798 FILLER_182_760
*15799 FILLER_182_763
*15800 FILLER_182_766
*15801 FILLER_182_769
*15802 FILLER_182_77
*15803 FILLER_182_772
*15804 FILLER_182_775
*15805 FILLER_182_778
*15806 FILLER_182_781
*15807 FILLER_182_784
*15808 FILLER_182_787
*15809 FILLER_182_790
*15810 FILLER_182_793
*15811 FILLER_182_796
*15812 FILLER_182_799
*15813 FILLER_182_80
*15814 FILLER_182_802
*15815 FILLER_182_805
*15816 FILLER_182_808
*15817 FILLER_182_811
*15818 FILLER_182_813
*15819 FILLER_182_816
*15820 FILLER_182_819
*15821 FILLER_182_822
*15822 FILLER_182_825
*15823 FILLER_182_828
*15824 FILLER_182_83
*15825 FILLER_182_831
*15826 FILLER_182_834
*15827 FILLER_182_837
*15828 FILLER_182_840
*15829 FILLER_182_843
*15830 FILLER_182_846
*15831 FILLER_182_849
*15832 FILLER_182_85
*15833 FILLER_182_852
*15834 FILLER_182_855
*15835 FILLER_182_858
*15836 FILLER_182_861
*15837 FILLER_182_864
*15838 FILLER_182_867
*15839 FILLER_182_869
*15840 FILLER_182_872
*15841 FILLER_182_875
*15842 FILLER_182_878
*15843 FILLER_182_88
*15844 FILLER_182_881
*15845 FILLER_182_884
*15846 FILLER_182_887
*15847 FILLER_182_890
*15848 FILLER_182_893
*15849 FILLER_182_896
*15850 FILLER_182_899
*15851 FILLER_182_9
*15852 FILLER_182_902
*15853 FILLER_182_905
*15854 FILLER_182_908
*15855 FILLER_182_91
*15856 FILLER_182_911
*15857 FILLER_182_914
*15858 FILLER_182_917
*15859 FILLER_182_920
*15860 FILLER_182_923
*15861 FILLER_182_925
*15862 FILLER_182_928
*15863 FILLER_182_931
*15864 FILLER_182_934
*15865 FILLER_182_937
*15866 FILLER_182_94
*15867 FILLER_182_940
*15868 FILLER_182_943
*15869 FILLER_182_946
*15870 FILLER_182_949
*15871 FILLER_182_952
*15872 FILLER_182_955
*15873 FILLER_182_958
*15874 FILLER_182_961
*15875 FILLER_182_964
*15876 FILLER_182_967
*15877 FILLER_182_97
*15878 FILLER_182_970
*15879 FILLER_182_973
*15880 FILLER_182_976
*15881 FILLER_182_979
*15882 FILLER_182_981
*15883 FILLER_182_984
*15884 FILLER_182_987
*15885 FILLER_182_990
*15886 FILLER_182_993
*15887 FILLER_182_996
*15888 FILLER_182_999
*15889 FILLER_183_1001
*15890 FILLER_183_1004
*15891 FILLER_183_1007
*15892 FILLER_183_1009
*15893 FILLER_183_1012
*15894 FILLER_183_1015
*15895 FILLER_183_1018
*15896 FILLER_183_102
*15897 FILLER_183_1021
*15898 FILLER_183_1024
*15899 FILLER_183_1027
*15900 FILLER_183_1030
*15901 FILLER_183_1033
*15902 FILLER_183_1036
*15903 FILLER_183_1039
*15904 FILLER_183_1042
*15905 FILLER_183_1045
*15906 FILLER_183_1048
*15907 FILLER_183_105
*15908 FILLER_183_1051
*15909 FILLER_183_1054
*15910 FILLER_183_1057
*15911 FILLER_183_1060
*15912 FILLER_183_1063
*15913 FILLER_183_1065
*15914 FILLER_183_1068
*15915 FILLER_183_1071
*15916 FILLER_183_1074
*15917 FILLER_183_1077
*15918 FILLER_183_108
*15919 FILLER_183_1080
*15920 FILLER_183_1083
*15921 FILLER_183_1086
*15922 FILLER_183_1089
*15923 FILLER_183_1092
*15924 FILLER_183_1095
*15925 FILLER_183_1098
*15926 FILLER_183_1101
*15927 FILLER_183_1104
*15928 FILLER_183_1107
*15929 FILLER_183_111
*15930 FILLER_183_1110
*15931 FILLER_183_1113
*15932 FILLER_183_1116
*15933 FILLER_183_1119
*15934 FILLER_183_1121
*15935 FILLER_183_1124
*15936 FILLER_183_1127
*15937 FILLER_183_113
*15938 FILLER_183_1130
*15939 FILLER_183_1133
*15940 FILLER_183_1136
*15941 FILLER_183_1139
*15942 FILLER_183_1142
*15943 FILLER_183_1145
*15944 FILLER_183_1148
*15945 FILLER_183_1151
*15946 FILLER_183_1154
*15947 FILLER_183_1157
*15948 FILLER_183_116
*15949 FILLER_183_1160
*15950 FILLER_183_1163
*15951 FILLER_183_1166
*15952 FILLER_183_1169
*15953 FILLER_183_1172
*15954 FILLER_183_1175
*15955 FILLER_183_1177
*15956 FILLER_183_1180
*15957 FILLER_183_1183
*15958 FILLER_183_1186
*15959 FILLER_183_1189
*15960 FILLER_183_119
*15961 FILLER_183_1192
*15962 FILLER_183_1195
*15963 FILLER_183_1198
*15964 FILLER_183_12
*15965 FILLER_183_1201
*15966 FILLER_183_1204
*15967 FILLER_183_1207
*15968 FILLER_183_1210
*15969 FILLER_183_1213
*15970 FILLER_183_1216
*15971 FILLER_183_1219
*15972 FILLER_183_122
*15973 FILLER_183_1222
*15974 FILLER_183_1225
*15975 FILLER_183_1228
*15976 FILLER_183_1231
*15977 FILLER_183_1233
*15978 FILLER_183_1236
*15979 FILLER_183_1239
*15980 FILLER_183_1242
*15981 FILLER_183_1245
*15982 FILLER_183_1248
*15983 FILLER_183_125
*15984 FILLER_183_1251
*15985 FILLER_183_1254
*15986 FILLER_183_1257
*15987 FILLER_183_1260
*15988 FILLER_183_1263
*15989 FILLER_183_1266
*15990 FILLER_183_1269
*15991 FILLER_183_1272
*15992 FILLER_183_1275
*15993 FILLER_183_1278
*15994 FILLER_183_128
*15995 FILLER_183_1281
*15996 FILLER_183_1284
*15997 FILLER_183_1287
*15998 FILLER_183_1289
*15999 FILLER_183_1292
*16000 FILLER_183_1295
*16001 FILLER_183_1298
*16002 FILLER_183_1301
*16003 FILLER_183_1304
*16004 FILLER_183_1307
*16005 FILLER_183_131
*16006 FILLER_183_1310
*16007 FILLER_183_1313
*16008 FILLER_183_1316
*16009 FILLER_183_1319
*16010 FILLER_183_1322
*16011 FILLER_183_1325
*16012 FILLER_183_1328
*16013 FILLER_183_1331
*16014 FILLER_183_1334
*16015 FILLER_183_1337
*16016 FILLER_183_134
*16017 FILLER_183_1340
*16018 FILLER_183_1343
*16019 FILLER_183_1345
*16020 FILLER_183_1348
*16021 FILLER_183_1351
*16022 FILLER_183_1354
*16023 FILLER_183_1357
*16024 FILLER_183_1360
*16025 FILLER_183_1363
*16026 FILLER_183_137
*16027 FILLER_183_140
*16028 FILLER_183_143
*16029 FILLER_183_146
*16030 FILLER_183_149
*16031 FILLER_183_15
*16032 FILLER_183_152
*16033 FILLER_183_155
*16034 FILLER_183_158
*16035 FILLER_183_161
*16036 FILLER_183_164
*16037 FILLER_183_167
*16038 FILLER_183_169
*16039 FILLER_183_172
*16040 FILLER_183_175
*16041 FILLER_183_178
*16042 FILLER_183_18
*16043 FILLER_183_181
*16044 FILLER_183_184
*16045 FILLER_183_187
*16046 FILLER_183_190
*16047 FILLER_183_193
*16048 FILLER_183_196
*16049 FILLER_183_199
*16050 FILLER_183_202
*16051 FILLER_183_205
*16052 FILLER_183_208
*16053 FILLER_183_21
*16054 FILLER_183_211
*16055 FILLER_183_214
*16056 FILLER_183_217
*16057 FILLER_183_220
*16058 FILLER_183_223
*16059 FILLER_183_225
*16060 FILLER_183_228
*16061 FILLER_183_231
*16062 FILLER_183_234
*16063 FILLER_183_237
*16064 FILLER_183_24
*16065 FILLER_183_240
*16066 FILLER_183_243
*16067 FILLER_183_246
*16068 FILLER_183_249
*16069 FILLER_183_252
*16070 FILLER_183_255
*16071 FILLER_183_258
*16072 FILLER_183_261
*16073 FILLER_183_264
*16074 FILLER_183_267
*16075 FILLER_183_27
*16076 FILLER_183_270
*16077 FILLER_183_273
*16078 FILLER_183_276
*16079 FILLER_183_279
*16080 FILLER_183_281
*16081 FILLER_183_284
*16082 FILLER_183_287
*16083 FILLER_183_290
*16084 FILLER_183_293
*16085 FILLER_183_296
*16086 FILLER_183_299
*16087 FILLER_183_3
*16088 FILLER_183_30
*16089 FILLER_183_302
*16090 FILLER_183_305
*16091 FILLER_183_308
*16092 FILLER_183_311
*16093 FILLER_183_314
*16094 FILLER_183_317
*16095 FILLER_183_320
*16096 FILLER_183_323
*16097 FILLER_183_326
*16098 FILLER_183_329
*16099 FILLER_183_33
*16100 FILLER_183_332
*16101 FILLER_183_335
*16102 FILLER_183_337
*16103 FILLER_183_340
*16104 FILLER_183_343
*16105 FILLER_183_346
*16106 FILLER_183_349
*16107 FILLER_183_352
*16108 FILLER_183_355
*16109 FILLER_183_358
*16110 FILLER_183_36
*16111 FILLER_183_361
*16112 FILLER_183_364
*16113 FILLER_183_367
*16114 FILLER_183_370
*16115 FILLER_183_373
*16116 FILLER_183_376
*16117 FILLER_183_379
*16118 FILLER_183_382
*16119 FILLER_183_385
*16120 FILLER_183_388
*16121 FILLER_183_39
*16122 FILLER_183_391
*16123 FILLER_183_393
*16124 FILLER_183_396
*16125 FILLER_183_399
*16126 FILLER_183_402
*16127 FILLER_183_405
*16128 FILLER_183_408
*16129 FILLER_183_411
*16130 FILLER_183_414
*16131 FILLER_183_417
*16132 FILLER_183_42
*16133 FILLER_183_420
*16134 FILLER_183_423
*16135 FILLER_183_426
*16136 FILLER_183_429
*16137 FILLER_183_432
*16138 FILLER_183_435
*16139 FILLER_183_438
*16140 FILLER_183_441
*16141 FILLER_183_444
*16142 FILLER_183_447
*16143 FILLER_183_449
*16144 FILLER_183_45
*16145 FILLER_183_452
*16146 FILLER_183_455
*16147 FILLER_183_458
*16148 FILLER_183_461
*16149 FILLER_183_464
*16150 FILLER_183_467
*16151 FILLER_183_470
*16152 FILLER_183_473
*16153 FILLER_183_476
*16154 FILLER_183_479
*16155 FILLER_183_48
*16156 FILLER_183_482
*16157 FILLER_183_485
*16158 FILLER_183_488
*16159 FILLER_183_491
*16160 FILLER_183_494
*16161 FILLER_183_497
*16162 FILLER_183_500
*16163 FILLER_183_503
*16164 FILLER_183_505
*16165 FILLER_183_508
*16166 FILLER_183_51
*16167 FILLER_183_511
*16168 FILLER_183_514
*16169 FILLER_183_517
*16170 FILLER_183_520
*16171 FILLER_183_523
*16172 FILLER_183_526
*16173 FILLER_183_529
*16174 FILLER_183_532
*16175 FILLER_183_535
*16176 FILLER_183_538
*16177 FILLER_183_54
*16178 FILLER_183_541
*16179 FILLER_183_544
*16180 FILLER_183_547
*16181 FILLER_183_550
*16182 FILLER_183_553
*16183 FILLER_183_556
*16184 FILLER_183_559
*16185 FILLER_183_561
*16186 FILLER_183_564
*16187 FILLER_183_567
*16188 FILLER_183_57
*16189 FILLER_183_570
*16190 FILLER_183_573
*16191 FILLER_183_576
*16192 FILLER_183_579
*16193 FILLER_183_582
*16194 FILLER_183_585
*16195 FILLER_183_588
*16196 FILLER_183_591
*16197 FILLER_183_594
*16198 FILLER_183_597
*16199 FILLER_183_6
*16200 FILLER_183_60
*16201 FILLER_183_600
*16202 FILLER_183_603
*16203 FILLER_183_606
*16204 FILLER_183_609
*16205 FILLER_183_612
*16206 FILLER_183_615
*16207 FILLER_183_617
*16208 FILLER_183_620
*16209 FILLER_183_623
*16210 FILLER_183_626
*16211 FILLER_183_629
*16212 FILLER_183_63
*16213 FILLER_183_632
*16214 FILLER_183_635
*16215 FILLER_183_638
*16216 FILLER_183_641
*16217 FILLER_183_644
*16218 FILLER_183_647
*16219 FILLER_183_650
*16220 FILLER_183_653
*16221 FILLER_183_656
*16222 FILLER_183_659
*16223 FILLER_183_66
*16224 FILLER_183_662
*16225 FILLER_183_665
*16226 FILLER_183_668
*16227 FILLER_183_671
*16228 FILLER_183_673
*16229 FILLER_183_676
*16230 FILLER_183_679
*16231 FILLER_183_682
*16232 FILLER_183_685
*16233 FILLER_183_688
*16234 FILLER_183_69
*16235 FILLER_183_691
*16236 FILLER_183_694
*16237 FILLER_183_697
*16238 FILLER_183_700
*16239 FILLER_183_703
*16240 FILLER_183_706
*16241 FILLER_183_709
*16242 FILLER_183_712
*16243 FILLER_183_715
*16244 FILLER_183_718
*16245 FILLER_183_72
*16246 FILLER_183_721
*16247 FILLER_183_724
*16248 FILLER_183_727
*16249 FILLER_183_729
*16250 FILLER_183_732
*16251 FILLER_183_735
*16252 FILLER_183_738
*16253 FILLER_183_741
*16254 FILLER_183_744
*16255 FILLER_183_747
*16256 FILLER_183_75
*16257 FILLER_183_750
*16258 FILLER_183_753
*16259 FILLER_183_756
*16260 FILLER_183_759
*16261 FILLER_183_762
*16262 FILLER_183_765
*16263 FILLER_183_768
*16264 FILLER_183_771
*16265 FILLER_183_774
*16266 FILLER_183_777
*16267 FILLER_183_78
*16268 FILLER_183_780
*16269 FILLER_183_783
*16270 FILLER_183_785
*16271 FILLER_183_788
*16272 FILLER_183_791
*16273 FILLER_183_794
*16274 FILLER_183_797
*16275 FILLER_183_800
*16276 FILLER_183_803
*16277 FILLER_183_806
*16278 FILLER_183_809
*16279 FILLER_183_81
*16280 FILLER_183_812
*16281 FILLER_183_815
*16282 FILLER_183_818
*16283 FILLER_183_821
*16284 FILLER_183_824
*16285 FILLER_183_827
*16286 FILLER_183_830
*16287 FILLER_183_833
*16288 FILLER_183_836
*16289 FILLER_183_839
*16290 FILLER_183_84
*16291 FILLER_183_841
*16292 FILLER_183_844
*16293 FILLER_183_847
*16294 FILLER_183_850
*16295 FILLER_183_853
*16296 FILLER_183_856
*16297 FILLER_183_859
*16298 FILLER_183_862
*16299 FILLER_183_865
*16300 FILLER_183_868
*16301 FILLER_183_87
*16302 FILLER_183_871
*16303 FILLER_183_874
*16304 FILLER_183_877
*16305 FILLER_183_880
*16306 FILLER_183_883
*16307 FILLER_183_886
*16308 FILLER_183_889
*16309 FILLER_183_892
*16310 FILLER_183_895
*16311 FILLER_183_897
*16312 FILLER_183_9
*16313 FILLER_183_90
*16314 FILLER_183_900
*16315 FILLER_183_903
*16316 FILLER_183_906
*16317 FILLER_183_909
*16318 FILLER_183_912
*16319 FILLER_183_915
*16320 FILLER_183_918
*16321 FILLER_183_921
*16322 FILLER_183_924
*16323 FILLER_183_927
*16324 FILLER_183_93
*16325 FILLER_183_930
*16326 FILLER_183_933
*16327 FILLER_183_936
*16328 FILLER_183_939
*16329 FILLER_183_942
*16330 FILLER_183_945
*16331 FILLER_183_948
*16332 FILLER_183_951
*16333 FILLER_183_953
*16334 FILLER_183_956
*16335 FILLER_183_959
*16336 FILLER_183_96
*16337 FILLER_183_962
*16338 FILLER_183_965
*16339 FILLER_183_968
*16340 FILLER_183_971
*16341 FILLER_183_974
*16342 FILLER_183_977
*16343 FILLER_183_980
*16344 FILLER_183_983
*16345 FILLER_183_986
*16346 FILLER_183_989
*16347 FILLER_183_99
*16348 FILLER_183_992
*16349 FILLER_183_995
*16350 FILLER_183_998
*16351 FILLER_184_100
*16352 FILLER_184_1002
*16353 FILLER_184_1005
*16354 FILLER_184_1008
*16355 FILLER_184_1011
*16356 FILLER_184_1014
*16357 FILLER_184_1017
*16358 FILLER_184_1020
*16359 FILLER_184_1023
*16360 FILLER_184_1026
*16361 FILLER_184_1029
*16362 FILLER_184_103
*16363 FILLER_184_1032
*16364 FILLER_184_1035
*16365 FILLER_184_1037
*16366 FILLER_184_1040
*16367 FILLER_184_1043
*16368 FILLER_184_1046
*16369 FILLER_184_1049
*16370 FILLER_184_1052
*16371 FILLER_184_1055
*16372 FILLER_184_1058
*16373 FILLER_184_106
*16374 FILLER_184_1061
*16375 FILLER_184_1064
*16376 FILLER_184_1067
*16377 FILLER_184_1070
*16378 FILLER_184_1073
*16379 FILLER_184_1076
*16380 FILLER_184_1079
*16381 FILLER_184_1082
*16382 FILLER_184_1085
*16383 FILLER_184_1088
*16384 FILLER_184_109
*16385 FILLER_184_1091
*16386 FILLER_184_1093
*16387 FILLER_184_1096
*16388 FILLER_184_1099
*16389 FILLER_184_1102
*16390 FILLER_184_1105
*16391 FILLER_184_1108
*16392 FILLER_184_1111
*16393 FILLER_184_1114
*16394 FILLER_184_1117
*16395 FILLER_184_112
*16396 FILLER_184_1120
*16397 FILLER_184_1123
*16398 FILLER_184_1126
*16399 FILLER_184_1129
*16400 FILLER_184_1132
*16401 FILLER_184_1135
*16402 FILLER_184_1138
*16403 FILLER_184_1141
*16404 FILLER_184_1144
*16405 FILLER_184_1147
*16406 FILLER_184_1149
*16407 FILLER_184_115
*16408 FILLER_184_1152
*16409 FILLER_184_1155
*16410 FILLER_184_1158
*16411 FILLER_184_1161
*16412 FILLER_184_1164
*16413 FILLER_184_1167
*16414 FILLER_184_1170
*16415 FILLER_184_1173
*16416 FILLER_184_1176
*16417 FILLER_184_1179
*16418 FILLER_184_118
*16419 FILLER_184_1182
*16420 FILLER_184_1185
*16421 FILLER_184_1188
*16422 FILLER_184_1191
*16423 FILLER_184_1194
*16424 FILLER_184_1197
*16425 FILLER_184_12
*16426 FILLER_184_1200
*16427 FILLER_184_1203
*16428 FILLER_184_1205
*16429 FILLER_184_1208
*16430 FILLER_184_121
*16431 FILLER_184_1211
*16432 FILLER_184_1214
*16433 FILLER_184_1217
*16434 FILLER_184_1220
*16435 FILLER_184_1223
*16436 FILLER_184_1226
*16437 FILLER_184_1229
*16438 FILLER_184_1232
*16439 FILLER_184_1235
*16440 FILLER_184_1238
*16441 FILLER_184_124
*16442 FILLER_184_1241
*16443 FILLER_184_1244
*16444 FILLER_184_1247
*16445 FILLER_184_1250
*16446 FILLER_184_1253
*16447 FILLER_184_1256
*16448 FILLER_184_1259
*16449 FILLER_184_1261
*16450 FILLER_184_1264
*16451 FILLER_184_1267
*16452 FILLER_184_127
*16453 FILLER_184_1270
*16454 FILLER_184_1273
*16455 FILLER_184_1276
*16456 FILLER_184_1279
*16457 FILLER_184_1282
*16458 FILLER_184_1285
*16459 FILLER_184_1288
*16460 FILLER_184_1291
*16461 FILLER_184_1294
*16462 FILLER_184_1297
*16463 FILLER_184_130
*16464 FILLER_184_1300
*16465 FILLER_184_1303
*16466 FILLER_184_1306
*16467 FILLER_184_1309
*16468 FILLER_184_1312
*16469 FILLER_184_1315
*16470 FILLER_184_1317
*16471 FILLER_184_1320
*16472 FILLER_184_1323
*16473 FILLER_184_1326
*16474 FILLER_184_1329
*16475 FILLER_184_133
*16476 FILLER_184_1332
*16477 FILLER_184_1335
*16478 FILLER_184_1338
*16479 FILLER_184_1341
*16480 FILLER_184_1344
*16481 FILLER_184_1347
*16482 FILLER_184_1350
*16483 FILLER_184_1353
*16484 FILLER_184_1356
*16485 FILLER_184_1359
*16486 FILLER_184_136
*16487 FILLER_184_1362
*16488 FILLER_184_139
*16489 FILLER_184_141
*16490 FILLER_184_144
*16491 FILLER_184_147
*16492 FILLER_184_15
*16493 FILLER_184_150
*16494 FILLER_184_153
*16495 FILLER_184_156
*16496 FILLER_184_159
*16497 FILLER_184_162
*16498 FILLER_184_165
*16499 FILLER_184_168
*16500 FILLER_184_171
*16501 FILLER_184_174
*16502 FILLER_184_177
*16503 FILLER_184_18
*16504 FILLER_184_180
*16505 FILLER_184_183
*16506 FILLER_184_186
*16507 FILLER_184_189
*16508 FILLER_184_192
*16509 FILLER_184_195
*16510 FILLER_184_197
*16511 FILLER_184_200
*16512 FILLER_184_203
*16513 FILLER_184_206
*16514 FILLER_184_209
*16515 FILLER_184_21
*16516 FILLER_184_212
*16517 FILLER_184_215
*16518 FILLER_184_218
*16519 FILLER_184_221
*16520 FILLER_184_224
*16521 FILLER_184_227
*16522 FILLER_184_230
*16523 FILLER_184_233
*16524 FILLER_184_236
*16525 FILLER_184_239
*16526 FILLER_184_24
*16527 FILLER_184_242
*16528 FILLER_184_245
*16529 FILLER_184_248
*16530 FILLER_184_251
*16531 FILLER_184_253
*16532 FILLER_184_256
*16533 FILLER_184_259
*16534 FILLER_184_262
*16535 FILLER_184_265
*16536 FILLER_184_268
*16537 FILLER_184_27
*16538 FILLER_184_271
*16539 FILLER_184_274
*16540 FILLER_184_277
*16541 FILLER_184_280
*16542 FILLER_184_283
*16543 FILLER_184_286
*16544 FILLER_184_289
*16545 FILLER_184_29
*16546 FILLER_184_292
*16547 FILLER_184_295
*16548 FILLER_184_298
*16549 FILLER_184_3
*16550 FILLER_184_301
*16551 FILLER_184_304
*16552 FILLER_184_307
*16553 FILLER_184_309
*16554 FILLER_184_312
*16555 FILLER_184_315
*16556 FILLER_184_318
*16557 FILLER_184_32
*16558 FILLER_184_321
*16559 FILLER_184_324
*16560 FILLER_184_327
*16561 FILLER_184_330
*16562 FILLER_184_333
*16563 FILLER_184_336
*16564 FILLER_184_339
*16565 FILLER_184_342
*16566 FILLER_184_345
*16567 FILLER_184_348
*16568 FILLER_184_35
*16569 FILLER_184_351
*16570 FILLER_184_354
*16571 FILLER_184_357
*16572 FILLER_184_360
*16573 FILLER_184_363
*16574 FILLER_184_365
*16575 FILLER_184_368
*16576 FILLER_184_371
*16577 FILLER_184_374
*16578 FILLER_184_377
*16579 FILLER_184_38
*16580 FILLER_184_380
*16581 FILLER_184_383
*16582 FILLER_184_386
*16583 FILLER_184_389
*16584 FILLER_184_392
*16585 FILLER_184_395
*16586 FILLER_184_398
*16587 FILLER_184_401
*16588 FILLER_184_404
*16589 FILLER_184_407
*16590 FILLER_184_41
*16591 FILLER_184_410
*16592 FILLER_184_413
*16593 FILLER_184_416
*16594 FILLER_184_419
*16595 FILLER_184_421
*16596 FILLER_184_424
*16597 FILLER_184_427
*16598 FILLER_184_430
*16599 FILLER_184_433
*16600 FILLER_184_436
*16601 FILLER_184_439
*16602 FILLER_184_44
*16603 FILLER_184_442
*16604 FILLER_184_445
*16605 FILLER_184_448
*16606 FILLER_184_451
*16607 FILLER_184_454
*16608 FILLER_184_457
*16609 FILLER_184_460
*16610 FILLER_184_463
*16611 FILLER_184_466
*16612 FILLER_184_469
*16613 FILLER_184_47
*16614 FILLER_184_472
*16615 FILLER_184_475
*16616 FILLER_184_477
*16617 FILLER_184_480
*16618 FILLER_184_483
*16619 FILLER_184_486
*16620 FILLER_184_489
*16621 FILLER_184_492
*16622 FILLER_184_495
*16623 FILLER_184_498
*16624 FILLER_184_50
*16625 FILLER_184_501
*16626 FILLER_184_504
*16627 FILLER_184_507
*16628 FILLER_184_510
*16629 FILLER_184_513
*16630 FILLER_184_516
*16631 FILLER_184_519
*16632 FILLER_184_522
*16633 FILLER_184_525
*16634 FILLER_184_528
*16635 FILLER_184_53
*16636 FILLER_184_531
*16637 FILLER_184_533
*16638 FILLER_184_536
*16639 FILLER_184_539
*16640 FILLER_184_542
*16641 FILLER_184_545
*16642 FILLER_184_548
*16643 FILLER_184_551
*16644 FILLER_184_554
*16645 FILLER_184_557
*16646 FILLER_184_56
*16647 FILLER_184_560
*16648 FILLER_184_563
*16649 FILLER_184_566
*16650 FILLER_184_569
*16651 FILLER_184_572
*16652 FILLER_184_575
*16653 FILLER_184_578
*16654 FILLER_184_581
*16655 FILLER_184_584
*16656 FILLER_184_587
*16657 FILLER_184_589
*16658 FILLER_184_59
*16659 FILLER_184_592
*16660 FILLER_184_595
*16661 FILLER_184_598
*16662 FILLER_184_6
*16663 FILLER_184_601
*16664 FILLER_184_604
*16665 FILLER_184_607
*16666 FILLER_184_610
*16667 FILLER_184_613
*16668 FILLER_184_616
*16669 FILLER_184_619
*16670 FILLER_184_62
*16671 FILLER_184_622
*16672 FILLER_184_625
*16673 FILLER_184_628
*16674 FILLER_184_631
*16675 FILLER_184_634
*16676 FILLER_184_637
*16677 FILLER_184_640
*16678 FILLER_184_643
*16679 FILLER_184_645
*16680 FILLER_184_648
*16681 FILLER_184_65
*16682 FILLER_184_651
*16683 FILLER_184_654
*16684 FILLER_184_657
*16685 FILLER_184_660
*16686 FILLER_184_663
*16687 FILLER_184_666
*16688 FILLER_184_669
*16689 FILLER_184_672
*16690 FILLER_184_675
*16691 FILLER_184_678
*16692 FILLER_184_68
*16693 FILLER_184_681
*16694 FILLER_184_684
*16695 FILLER_184_687
*16696 FILLER_184_690
*16697 FILLER_184_693
*16698 FILLER_184_696
*16699 FILLER_184_699
*16700 FILLER_184_701
*16701 FILLER_184_704
*16702 FILLER_184_707
*16703 FILLER_184_71
*16704 FILLER_184_710
*16705 FILLER_184_713
*16706 FILLER_184_716
*16707 FILLER_184_719
*16708 FILLER_184_722
*16709 FILLER_184_725
*16710 FILLER_184_728
*16711 FILLER_184_731
*16712 FILLER_184_734
*16713 FILLER_184_737
*16714 FILLER_184_74
*16715 FILLER_184_740
*16716 FILLER_184_743
*16717 FILLER_184_746
*16718 FILLER_184_749
*16719 FILLER_184_752
*16720 FILLER_184_755
*16721 FILLER_184_757
*16722 FILLER_184_760
*16723 FILLER_184_763
*16724 FILLER_184_766
*16725 FILLER_184_769
*16726 FILLER_184_77
*16727 FILLER_184_772
*16728 FILLER_184_775
*16729 FILLER_184_778
*16730 FILLER_184_781
*16731 FILLER_184_784
*16732 FILLER_184_787
*16733 FILLER_184_790
*16734 FILLER_184_793
*16735 FILLER_184_796
*16736 FILLER_184_799
*16737 FILLER_184_80
*16738 FILLER_184_802
*16739 FILLER_184_805
*16740 FILLER_184_808
*16741 FILLER_184_811
*16742 FILLER_184_813
*16743 FILLER_184_816
*16744 FILLER_184_819
*16745 FILLER_184_822
*16746 FILLER_184_825
*16747 FILLER_184_828
*16748 FILLER_184_83
*16749 FILLER_184_831
*16750 FILLER_184_834
*16751 FILLER_184_837
*16752 FILLER_184_840
*16753 FILLER_184_843
*16754 FILLER_184_846
*16755 FILLER_184_849
*16756 FILLER_184_85
*16757 FILLER_184_852
*16758 FILLER_184_855
*16759 FILLER_184_858
*16760 FILLER_184_861
*16761 FILLER_184_864
*16762 FILLER_184_867
*16763 FILLER_184_869
*16764 FILLER_184_872
*16765 FILLER_184_875
*16766 FILLER_184_878
*16767 FILLER_184_88
*16768 FILLER_184_881
*16769 FILLER_184_884
*16770 FILLER_184_887
*16771 FILLER_184_890
*16772 FILLER_184_893
*16773 FILLER_184_896
*16774 FILLER_184_899
*16775 FILLER_184_9
*16776 FILLER_184_902
*16777 FILLER_184_905
*16778 FILLER_184_908
*16779 FILLER_184_91
*16780 FILLER_184_911
*16781 FILLER_184_914
*16782 FILLER_184_917
*16783 FILLER_184_920
*16784 FILLER_184_923
*16785 FILLER_184_925
*16786 FILLER_184_928
*16787 FILLER_184_931
*16788 FILLER_184_934
*16789 FILLER_184_937
*16790 FILLER_184_94
*16791 FILLER_184_940
*16792 FILLER_184_943
*16793 FILLER_184_946
*16794 FILLER_184_949
*16795 FILLER_184_952
*16796 FILLER_184_955
*16797 FILLER_184_958
*16798 FILLER_184_961
*16799 FILLER_184_964
*16800 FILLER_184_967
*16801 FILLER_184_97
*16802 FILLER_184_970
*16803 FILLER_184_973
*16804 FILLER_184_976
*16805 FILLER_184_979
*16806 FILLER_184_981
*16807 FILLER_184_984
*16808 FILLER_184_987
*16809 FILLER_184_990
*16810 FILLER_184_993
*16811 FILLER_184_996
*16812 FILLER_184_999
*16813 FILLER_185_1001
*16814 FILLER_185_1004
*16815 FILLER_185_1007
*16816 FILLER_185_1009
*16817 FILLER_185_1012
*16818 FILLER_185_1015
*16819 FILLER_185_1018
*16820 FILLER_185_102
*16821 FILLER_185_1021
*16822 FILLER_185_1024
*16823 FILLER_185_1027
*16824 FILLER_185_1030
*16825 FILLER_185_1033
*16826 FILLER_185_1036
*16827 FILLER_185_1039
*16828 FILLER_185_1042
*16829 FILLER_185_1045
*16830 FILLER_185_1048
*16831 FILLER_185_105
*16832 FILLER_185_1051
*16833 FILLER_185_1054
*16834 FILLER_185_1057
*16835 FILLER_185_1060
*16836 FILLER_185_1063
*16837 FILLER_185_1065
*16838 FILLER_185_1068
*16839 FILLER_185_1071
*16840 FILLER_185_1074
*16841 FILLER_185_1077
*16842 FILLER_185_108
*16843 FILLER_185_1080
*16844 FILLER_185_1083
*16845 FILLER_185_1086
*16846 FILLER_185_1089
*16847 FILLER_185_1092
*16848 FILLER_185_1095
*16849 FILLER_185_1098
*16850 FILLER_185_1101
*16851 FILLER_185_1104
*16852 FILLER_185_1107
*16853 FILLER_185_111
*16854 FILLER_185_1110
*16855 FILLER_185_1113
*16856 FILLER_185_1116
*16857 FILLER_185_1119
*16858 FILLER_185_1121
*16859 FILLER_185_1124
*16860 FILLER_185_1127
*16861 FILLER_185_113
*16862 FILLER_185_1130
*16863 FILLER_185_1133
*16864 FILLER_185_1136
*16865 FILLER_185_1139
*16866 FILLER_185_1142
*16867 FILLER_185_1145
*16868 FILLER_185_1148
*16869 FILLER_185_1151
*16870 FILLER_185_1154
*16871 FILLER_185_1157
*16872 FILLER_185_116
*16873 FILLER_185_1160
*16874 FILLER_185_1163
*16875 FILLER_185_1166
*16876 FILLER_185_1169
*16877 FILLER_185_1172
*16878 FILLER_185_1175
*16879 FILLER_185_1177
*16880 FILLER_185_1180
*16881 FILLER_185_1183
*16882 FILLER_185_1186
*16883 FILLER_185_1189
*16884 FILLER_185_119
*16885 FILLER_185_1192
*16886 FILLER_185_1195
*16887 FILLER_185_1198
*16888 FILLER_185_12
*16889 FILLER_185_1201
*16890 FILLER_185_1204
*16891 FILLER_185_1207
*16892 FILLER_185_1210
*16893 FILLER_185_1213
*16894 FILLER_185_1216
*16895 FILLER_185_1219
*16896 FILLER_185_122
*16897 FILLER_185_1222
*16898 FILLER_185_1225
*16899 FILLER_185_1228
*16900 FILLER_185_1231
*16901 FILLER_185_1233
*16902 FILLER_185_1236
*16903 FILLER_185_1239
*16904 FILLER_185_1242
*16905 FILLER_185_1245
*16906 FILLER_185_1248
*16907 FILLER_185_125
*16908 FILLER_185_1251
*16909 FILLER_185_1254
*16910 FILLER_185_1257
*16911 FILLER_185_1260
*16912 FILLER_185_1263
*16913 FILLER_185_1266
*16914 FILLER_185_1269
*16915 FILLER_185_1272
*16916 FILLER_185_1275
*16917 FILLER_185_1278
*16918 FILLER_185_128
*16919 FILLER_185_1281
*16920 FILLER_185_1284
*16921 FILLER_185_1287
*16922 FILLER_185_1289
*16923 FILLER_185_1292
*16924 FILLER_185_1295
*16925 FILLER_185_1298
*16926 FILLER_185_1301
*16927 FILLER_185_1304
*16928 FILLER_185_1307
*16929 FILLER_185_131
*16930 FILLER_185_1310
*16931 FILLER_185_1313
*16932 FILLER_185_1316
*16933 FILLER_185_1319
*16934 FILLER_185_1322
*16935 FILLER_185_1325
*16936 FILLER_185_1328
*16937 FILLER_185_1331
*16938 FILLER_185_1334
*16939 FILLER_185_1337
*16940 FILLER_185_134
*16941 FILLER_185_1340
*16942 FILLER_185_1343
*16943 FILLER_185_1345
*16944 FILLER_185_1348
*16945 FILLER_185_1351
*16946 FILLER_185_1354
*16947 FILLER_185_1357
*16948 FILLER_185_1360
*16949 FILLER_185_1363
*16950 FILLER_185_137
*16951 FILLER_185_140
*16952 FILLER_185_143
*16953 FILLER_185_146
*16954 FILLER_185_149
*16955 FILLER_185_15
*16956 FILLER_185_152
*16957 FILLER_185_155
*16958 FILLER_185_158
*16959 FILLER_185_161
*16960 FILLER_185_164
*16961 FILLER_185_167
*16962 FILLER_185_169
*16963 FILLER_185_172
*16964 FILLER_185_175
*16965 FILLER_185_178
*16966 FILLER_185_18
*16967 FILLER_185_181
*16968 FILLER_185_184
*16969 FILLER_185_187
*16970 FILLER_185_190
*16971 FILLER_185_193
*16972 FILLER_185_196
*16973 FILLER_185_199
*16974 FILLER_185_202
*16975 FILLER_185_205
*16976 FILLER_185_208
*16977 FILLER_185_21
*16978 FILLER_185_211
*16979 FILLER_185_214
*16980 FILLER_185_217
*16981 FILLER_185_220
*16982 FILLER_185_223
*16983 FILLER_185_225
*16984 FILLER_185_228
*16985 FILLER_185_231
*16986 FILLER_185_234
*16987 FILLER_185_237
*16988 FILLER_185_24
*16989 FILLER_185_240
*16990 FILLER_185_243
*16991 FILLER_185_246
*16992 FILLER_185_249
*16993 FILLER_185_252
*16994 FILLER_185_255
*16995 FILLER_185_258
*16996 FILLER_185_261
*16997 FILLER_185_264
*16998 FILLER_185_267
*16999 FILLER_185_27
*17000 FILLER_185_270
*17001 FILLER_185_273
*17002 FILLER_185_276
*17003 FILLER_185_279
*17004 FILLER_185_281
*17005 FILLER_185_284
*17006 FILLER_185_287
*17007 FILLER_185_290
*17008 FILLER_185_293
*17009 FILLER_185_296
*17010 FILLER_185_299
*17011 FILLER_185_3
*17012 FILLER_185_30
*17013 FILLER_185_302
*17014 FILLER_185_305
*17015 FILLER_185_308
*17016 FILLER_185_311
*17017 FILLER_185_314
*17018 FILLER_185_317
*17019 FILLER_185_320
*17020 FILLER_185_323
*17021 FILLER_185_326
*17022 FILLER_185_329
*17023 FILLER_185_33
*17024 FILLER_185_332
*17025 FILLER_185_335
*17026 FILLER_185_337
*17027 FILLER_185_340
*17028 FILLER_185_343
*17029 FILLER_185_346
*17030 FILLER_185_349
*17031 FILLER_185_352
*17032 FILLER_185_355
*17033 FILLER_185_358
*17034 FILLER_185_36
*17035 FILLER_185_361
*17036 FILLER_185_364
*17037 FILLER_185_367
*17038 FILLER_185_370
*17039 FILLER_185_373
*17040 FILLER_185_376
*17041 FILLER_185_379
*17042 FILLER_185_382
*17043 FILLER_185_385
*17044 FILLER_185_388
*17045 FILLER_185_39
*17046 FILLER_185_391
*17047 FILLER_185_393
*17048 FILLER_185_396
*17049 FILLER_185_399
*17050 FILLER_185_402
*17051 FILLER_185_405
*17052 FILLER_185_408
*17053 FILLER_185_411
*17054 FILLER_185_414
*17055 FILLER_185_417
*17056 FILLER_185_42
*17057 FILLER_185_420
*17058 FILLER_185_423
*17059 FILLER_185_426
*17060 FILLER_185_429
*17061 FILLER_185_432
*17062 FILLER_185_435
*17063 FILLER_185_438
*17064 FILLER_185_441
*17065 FILLER_185_444
*17066 FILLER_185_447
*17067 FILLER_185_449
*17068 FILLER_185_45
*17069 FILLER_185_452
*17070 FILLER_185_455
*17071 FILLER_185_458
*17072 FILLER_185_461
*17073 FILLER_185_464
*17074 FILLER_185_467
*17075 FILLER_185_470
*17076 FILLER_185_473
*17077 FILLER_185_476
*17078 FILLER_185_479
*17079 FILLER_185_48
*17080 FILLER_185_482
*17081 FILLER_185_485
*17082 FILLER_185_488
*17083 FILLER_185_491
*17084 FILLER_185_494
*17085 FILLER_185_497
*17086 FILLER_185_500
*17087 FILLER_185_503
*17088 FILLER_185_505
*17089 FILLER_185_508
*17090 FILLER_185_51
*17091 FILLER_185_511
*17092 FILLER_185_514
*17093 FILLER_185_517
*17094 FILLER_185_520
*17095 FILLER_185_523
*17096 FILLER_185_526
*17097 FILLER_185_529
*17098 FILLER_185_532
*17099 FILLER_185_535
*17100 FILLER_185_538
*17101 FILLER_185_54
*17102 FILLER_185_541
*17103 FILLER_185_544
*17104 FILLER_185_547
*17105 FILLER_185_550
*17106 FILLER_185_553
*17107 FILLER_185_556
*17108 FILLER_185_559
*17109 FILLER_185_561
*17110 FILLER_185_564
*17111 FILLER_185_567
*17112 FILLER_185_57
*17113 FILLER_185_570
*17114 FILLER_185_573
*17115 FILLER_185_576
*17116 FILLER_185_579
*17117 FILLER_185_582
*17118 FILLER_185_585
*17119 FILLER_185_588
*17120 FILLER_185_591
*17121 FILLER_185_594
*17122 FILLER_185_597
*17123 FILLER_185_6
*17124 FILLER_185_60
*17125 FILLER_185_600
*17126 FILLER_185_603
*17127 FILLER_185_606
*17128 FILLER_185_609
*17129 FILLER_185_612
*17130 FILLER_185_615
*17131 FILLER_185_617
*17132 FILLER_185_620
*17133 FILLER_185_623
*17134 FILLER_185_626
*17135 FILLER_185_629
*17136 FILLER_185_63
*17137 FILLER_185_632
*17138 FILLER_185_635
*17139 FILLER_185_638
*17140 FILLER_185_641
*17141 FILLER_185_644
*17142 FILLER_185_647
*17143 FILLER_185_650
*17144 FILLER_185_653
*17145 FILLER_185_656
*17146 FILLER_185_659
*17147 FILLER_185_66
*17148 FILLER_185_662
*17149 FILLER_185_665
*17150 FILLER_185_668
*17151 FILLER_185_671
*17152 FILLER_185_673
*17153 FILLER_185_676
*17154 FILLER_185_679
*17155 FILLER_185_682
*17156 FILLER_185_685
*17157 FILLER_185_688
*17158 FILLER_185_69
*17159 FILLER_185_691
*17160 FILLER_185_694
*17161 FILLER_185_697
*17162 FILLER_185_700
*17163 FILLER_185_703
*17164 FILLER_185_706
*17165 FILLER_185_709
*17166 FILLER_185_712
*17167 FILLER_185_715
*17168 FILLER_185_718
*17169 FILLER_185_72
*17170 FILLER_185_721
*17171 FILLER_185_724
*17172 FILLER_185_727
*17173 FILLER_185_729
*17174 FILLER_185_732
*17175 FILLER_185_735
*17176 FILLER_185_738
*17177 FILLER_185_741
*17178 FILLER_185_744
*17179 FILLER_185_747
*17180 FILLER_185_75
*17181 FILLER_185_750
*17182 FILLER_185_753
*17183 FILLER_185_756
*17184 FILLER_185_759
*17185 FILLER_185_762
*17186 FILLER_185_765
*17187 FILLER_185_768
*17188 FILLER_185_771
*17189 FILLER_185_774
*17190 FILLER_185_777
*17191 FILLER_185_78
*17192 FILLER_185_780
*17193 FILLER_185_783
*17194 FILLER_185_785
*17195 FILLER_185_788
*17196 FILLER_185_791
*17197 FILLER_185_794
*17198 FILLER_185_797
*17199 FILLER_185_800
*17200 FILLER_185_803
*17201 FILLER_185_806
*17202 FILLER_185_809
*17203 FILLER_185_81
*17204 FILLER_185_812
*17205 FILLER_185_815
*17206 FILLER_185_818
*17207 FILLER_185_821
*17208 FILLER_185_824
*17209 FILLER_185_827
*17210 FILLER_185_830
*17211 FILLER_185_833
*17212 FILLER_185_836
*17213 FILLER_185_839
*17214 FILLER_185_84
*17215 FILLER_185_841
*17216 FILLER_185_844
*17217 FILLER_185_847
*17218 FILLER_185_850
*17219 FILLER_185_853
*17220 FILLER_185_856
*17221 FILLER_185_859
*17222 FILLER_185_862
*17223 FILLER_185_865
*17224 FILLER_185_868
*17225 FILLER_185_87
*17226 FILLER_185_871
*17227 FILLER_185_874
*17228 FILLER_185_877
*17229 FILLER_185_880
*17230 FILLER_185_883
*17231 FILLER_185_886
*17232 FILLER_185_889
*17233 FILLER_185_892
*17234 FILLER_185_895
*17235 FILLER_185_897
*17236 FILLER_185_9
*17237 FILLER_185_90
*17238 FILLER_185_900
*17239 FILLER_185_903
*17240 FILLER_185_906
*17241 FILLER_185_909
*17242 FILLER_185_912
*17243 FILLER_185_915
*17244 FILLER_185_918
*17245 FILLER_185_921
*17246 FILLER_185_924
*17247 FILLER_185_927
*17248 FILLER_185_93
*17249 FILLER_185_930
*17250 FILLER_185_933
*17251 FILLER_185_936
*17252 FILLER_185_939
*17253 FILLER_185_942
*17254 FILLER_185_945
*17255 FILLER_185_948
*17256 FILLER_185_951
*17257 FILLER_185_953
*17258 FILLER_185_956
*17259 FILLER_185_959
*17260 FILLER_185_96
*17261 FILLER_185_962
*17262 FILLER_185_965
*17263 FILLER_185_968
*17264 FILLER_185_971
*17265 FILLER_185_974
*17266 FILLER_185_977
*17267 FILLER_185_980
*17268 FILLER_185_983
*17269 FILLER_185_986
*17270 FILLER_185_989
*17271 FILLER_185_99
*17272 FILLER_185_992
*17273 FILLER_185_995
*17274 FILLER_185_998
*17275 FILLER_186_100
*17276 FILLER_186_1002
*17277 FILLER_186_1005
*17278 FILLER_186_1008
*17279 FILLER_186_1011
*17280 FILLER_186_1014
*17281 FILLER_186_1017
*17282 FILLER_186_1020
*17283 FILLER_186_1023
*17284 FILLER_186_1026
*17285 FILLER_186_1029
*17286 FILLER_186_103
*17287 FILLER_186_1032
*17288 FILLER_186_1035
*17289 FILLER_186_1037
*17290 FILLER_186_1040
*17291 FILLER_186_1043
*17292 FILLER_186_1046
*17293 FILLER_186_1049
*17294 FILLER_186_1052
*17295 FILLER_186_1055
*17296 FILLER_186_1058
*17297 FILLER_186_106
*17298 FILLER_186_1061
*17299 FILLER_186_1064
*17300 FILLER_186_1067
*17301 FILLER_186_1070
*17302 FILLER_186_1073
*17303 FILLER_186_1076
*17304 FILLER_186_1079
*17305 FILLER_186_1082
*17306 FILLER_186_1085
*17307 FILLER_186_1088
*17308 FILLER_186_109
*17309 FILLER_186_1091
*17310 FILLER_186_1093
*17311 FILLER_186_1096
*17312 FILLER_186_1099
*17313 FILLER_186_1102
*17314 FILLER_186_1105
*17315 FILLER_186_1108
*17316 FILLER_186_1111
*17317 FILLER_186_1114
*17318 FILLER_186_1117
*17319 FILLER_186_112
*17320 FILLER_186_1120
*17321 FILLER_186_1123
*17322 FILLER_186_1126
*17323 FILLER_186_1129
*17324 FILLER_186_1132
*17325 FILLER_186_1135
*17326 FILLER_186_1138
*17327 FILLER_186_1141
*17328 FILLER_186_1144
*17329 FILLER_186_1147
*17330 FILLER_186_1149
*17331 FILLER_186_115
*17332 FILLER_186_1152
*17333 FILLER_186_1155
*17334 FILLER_186_1158
*17335 FILLER_186_1161
*17336 FILLER_186_1164
*17337 FILLER_186_1167
*17338 FILLER_186_1170
*17339 FILLER_186_1173
*17340 FILLER_186_1176
*17341 FILLER_186_1179
*17342 FILLER_186_118
*17343 FILLER_186_1182
*17344 FILLER_186_1185
*17345 FILLER_186_1188
*17346 FILLER_186_1191
*17347 FILLER_186_1194
*17348 FILLER_186_1197
*17349 FILLER_186_12
*17350 FILLER_186_1200
*17351 FILLER_186_1203
*17352 FILLER_186_1205
*17353 FILLER_186_1208
*17354 FILLER_186_121
*17355 FILLER_186_1211
*17356 FILLER_186_1214
*17357 FILLER_186_1217
*17358 FILLER_186_1220
*17359 FILLER_186_1223
*17360 FILLER_186_1226
*17361 FILLER_186_1229
*17362 FILLER_186_1232
*17363 FILLER_186_1235
*17364 FILLER_186_1238
*17365 FILLER_186_124
*17366 FILLER_186_1241
*17367 FILLER_186_1244
*17368 FILLER_186_1247
*17369 FILLER_186_1250
*17370 FILLER_186_1253
*17371 FILLER_186_1256
*17372 FILLER_186_1259
*17373 FILLER_186_1261
*17374 FILLER_186_1264
*17375 FILLER_186_1267
*17376 FILLER_186_127
*17377 FILLER_186_1270
*17378 FILLER_186_1273
*17379 FILLER_186_1276
*17380 FILLER_186_1279
*17381 FILLER_186_1282
*17382 FILLER_186_1285
*17383 FILLER_186_1288
*17384 FILLER_186_1291
*17385 FILLER_186_1294
*17386 FILLER_186_1297
*17387 FILLER_186_130
*17388 FILLER_186_1300
*17389 FILLER_186_1303
*17390 FILLER_186_1306
*17391 FILLER_186_1309
*17392 FILLER_186_1312
*17393 FILLER_186_1315
*17394 FILLER_186_1317
*17395 FILLER_186_1320
*17396 FILLER_186_1323
*17397 FILLER_186_1326
*17398 FILLER_186_1329
*17399 FILLER_186_133
*17400 FILLER_186_1332
*17401 FILLER_186_1335
*17402 FILLER_186_1338
*17403 FILLER_186_1341
*17404 FILLER_186_1344
*17405 FILLER_186_1347
*17406 FILLER_186_1350
*17407 FILLER_186_1353
*17408 FILLER_186_1356
*17409 FILLER_186_1359
*17410 FILLER_186_136
*17411 FILLER_186_1362
*17412 FILLER_186_139
*17413 FILLER_186_141
*17414 FILLER_186_144
*17415 FILLER_186_147
*17416 FILLER_186_15
*17417 FILLER_186_150
*17418 FILLER_186_153
*17419 FILLER_186_156
*17420 FILLER_186_159
*17421 FILLER_186_162
*17422 FILLER_186_165
*17423 FILLER_186_168
*17424 FILLER_186_171
*17425 FILLER_186_174
*17426 FILLER_186_177
*17427 FILLER_186_18
*17428 FILLER_186_180
*17429 FILLER_186_183
*17430 FILLER_186_186
*17431 FILLER_186_189
*17432 FILLER_186_192
*17433 FILLER_186_195
*17434 FILLER_186_197
*17435 FILLER_186_200
*17436 FILLER_186_203
*17437 FILLER_186_206
*17438 FILLER_186_209
*17439 FILLER_186_21
*17440 FILLER_186_212
*17441 FILLER_186_215
*17442 FILLER_186_218
*17443 FILLER_186_221
*17444 FILLER_186_224
*17445 FILLER_186_227
*17446 FILLER_186_230
*17447 FILLER_186_233
*17448 FILLER_186_236
*17449 FILLER_186_239
*17450 FILLER_186_24
*17451 FILLER_186_242
*17452 FILLER_186_245
*17453 FILLER_186_248
*17454 FILLER_186_251
*17455 FILLER_186_253
*17456 FILLER_186_256
*17457 FILLER_186_259
*17458 FILLER_186_262
*17459 FILLER_186_265
*17460 FILLER_186_268
*17461 FILLER_186_27
*17462 FILLER_186_271
*17463 FILLER_186_274
*17464 FILLER_186_277
*17465 FILLER_186_280
*17466 FILLER_186_283
*17467 FILLER_186_286
*17468 FILLER_186_289
*17469 FILLER_186_29
*17470 FILLER_186_292
*17471 FILLER_186_295
*17472 FILLER_186_298
*17473 FILLER_186_3
*17474 FILLER_186_301
*17475 FILLER_186_304
*17476 FILLER_186_307
*17477 FILLER_186_309
*17478 FILLER_186_312
*17479 FILLER_186_315
*17480 FILLER_186_318
*17481 FILLER_186_32
*17482 FILLER_186_321
*17483 FILLER_186_324
*17484 FILLER_186_327
*17485 FILLER_186_330
*17486 FILLER_186_333
*17487 FILLER_186_336
*17488 FILLER_186_339
*17489 FILLER_186_342
*17490 FILLER_186_345
*17491 FILLER_186_348
*17492 FILLER_186_35
*17493 FILLER_186_351
*17494 FILLER_186_354
*17495 FILLER_186_357
*17496 FILLER_186_360
*17497 FILLER_186_363
*17498 FILLER_186_365
*17499 FILLER_186_368
*17500 FILLER_186_371
*17501 FILLER_186_374
*17502 FILLER_186_377
*17503 FILLER_186_38
*17504 FILLER_186_380
*17505 FILLER_186_383
*17506 FILLER_186_386
*17507 FILLER_186_389
*17508 FILLER_186_392
*17509 FILLER_186_395
*17510 FILLER_186_398
*17511 FILLER_186_401
*17512 FILLER_186_404
*17513 FILLER_186_407
*17514 FILLER_186_41
*17515 FILLER_186_410
*17516 FILLER_186_413
*17517 FILLER_186_416
*17518 FILLER_186_419
*17519 FILLER_186_421
*17520 FILLER_186_424
*17521 FILLER_186_427
*17522 FILLER_186_430
*17523 FILLER_186_433
*17524 FILLER_186_436
*17525 FILLER_186_439
*17526 FILLER_186_44
*17527 FILLER_186_442
*17528 FILLER_186_445
*17529 FILLER_186_448
*17530 FILLER_186_451
*17531 FILLER_186_454
*17532 FILLER_186_457
*17533 FILLER_186_460
*17534 FILLER_186_463
*17535 FILLER_186_466
*17536 FILLER_186_469
*17537 FILLER_186_47
*17538 FILLER_186_472
*17539 FILLER_186_475
*17540 FILLER_186_477
*17541 FILLER_186_480
*17542 FILLER_186_483
*17543 FILLER_186_486
*17544 FILLER_186_489
*17545 FILLER_186_492
*17546 FILLER_186_495
*17547 FILLER_186_498
*17548 FILLER_186_50
*17549 FILLER_186_501
*17550 FILLER_186_504
*17551 FILLER_186_507
*17552 FILLER_186_510
*17553 FILLER_186_513
*17554 FILLER_186_516
*17555 FILLER_186_519
*17556 FILLER_186_522
*17557 FILLER_186_525
*17558 FILLER_186_528
*17559 FILLER_186_53
*17560 FILLER_186_531
*17561 FILLER_186_533
*17562 FILLER_186_536
*17563 FILLER_186_539
*17564 FILLER_186_542
*17565 FILLER_186_545
*17566 FILLER_186_548
*17567 FILLER_186_551
*17568 FILLER_186_554
*17569 FILLER_186_557
*17570 FILLER_186_56
*17571 FILLER_186_560
*17572 FILLER_186_563
*17573 FILLER_186_566
*17574 FILLER_186_569
*17575 FILLER_186_572
*17576 FILLER_186_575
*17577 FILLER_186_578
*17578 FILLER_186_581
*17579 FILLER_186_584
*17580 FILLER_186_587
*17581 FILLER_186_589
*17582 FILLER_186_59
*17583 FILLER_186_592
*17584 FILLER_186_595
*17585 FILLER_186_598
*17586 FILLER_186_6
*17587 FILLER_186_601
*17588 FILLER_186_604
*17589 FILLER_186_607
*17590 FILLER_186_610
*17591 FILLER_186_613
*17592 FILLER_186_616
*17593 FILLER_186_619
*17594 FILLER_186_62
*17595 FILLER_186_622
*17596 FILLER_186_625
*17597 FILLER_186_628
*17598 FILLER_186_631
*17599 FILLER_186_634
*17600 FILLER_186_637
*17601 FILLER_186_640
*17602 FILLER_186_643
*17603 FILLER_186_645
*17604 FILLER_186_648
*17605 FILLER_186_65
*17606 FILLER_186_651
*17607 FILLER_186_654
*17608 FILLER_186_657
*17609 FILLER_186_660
*17610 FILLER_186_663
*17611 FILLER_186_666
*17612 FILLER_186_669
*17613 FILLER_186_672
*17614 FILLER_186_675
*17615 FILLER_186_678
*17616 FILLER_186_68
*17617 FILLER_186_681
*17618 FILLER_186_684
*17619 FILLER_186_687
*17620 FILLER_186_690
*17621 FILLER_186_693
*17622 FILLER_186_696
*17623 FILLER_186_699
*17624 FILLER_186_701
*17625 FILLER_186_704
*17626 FILLER_186_707
*17627 FILLER_186_71
*17628 FILLER_186_710
*17629 FILLER_186_713
*17630 FILLER_186_716
*17631 FILLER_186_719
*17632 FILLER_186_722
*17633 FILLER_186_725
*17634 FILLER_186_728
*17635 FILLER_186_731
*17636 FILLER_186_734
*17637 FILLER_186_737
*17638 FILLER_186_74
*17639 FILLER_186_740
*17640 FILLER_186_743
*17641 FILLER_186_746
*17642 FILLER_186_749
*17643 FILLER_186_752
*17644 FILLER_186_755
*17645 FILLER_186_757
*17646 FILLER_186_760
*17647 FILLER_186_763
*17648 FILLER_186_766
*17649 FILLER_186_769
*17650 FILLER_186_77
*17651 FILLER_186_772
*17652 FILLER_186_775
*17653 FILLER_186_778
*17654 FILLER_186_781
*17655 FILLER_186_784
*17656 FILLER_186_787
*17657 FILLER_186_790
*17658 FILLER_186_793
*17659 FILLER_186_796
*17660 FILLER_186_799
*17661 FILLER_186_80
*17662 FILLER_186_802
*17663 FILLER_186_805
*17664 FILLER_186_808
*17665 FILLER_186_811
*17666 FILLER_186_813
*17667 FILLER_186_816
*17668 FILLER_186_819
*17669 FILLER_186_822
*17670 FILLER_186_825
*17671 FILLER_186_828
*17672 FILLER_186_83
*17673 FILLER_186_831
*17674 FILLER_186_834
*17675 FILLER_186_837
*17676 FILLER_186_840
*17677 FILLER_186_843
*17678 FILLER_186_846
*17679 FILLER_186_849
*17680 FILLER_186_85
*17681 FILLER_186_852
*17682 FILLER_186_855
*17683 FILLER_186_858
*17684 FILLER_186_861
*17685 FILLER_186_864
*17686 FILLER_186_867
*17687 FILLER_186_869
*17688 FILLER_186_872
*17689 FILLER_186_875
*17690 FILLER_186_878
*17691 FILLER_186_88
*17692 FILLER_186_881
*17693 FILLER_186_884
*17694 FILLER_186_887
*17695 FILLER_186_890
*17696 FILLER_186_893
*17697 FILLER_186_896
*17698 FILLER_186_899
*17699 FILLER_186_9
*17700 FILLER_186_902
*17701 FILLER_186_905
*17702 FILLER_186_908
*17703 FILLER_186_91
*17704 FILLER_186_911
*17705 FILLER_186_914
*17706 FILLER_186_917
*17707 FILLER_186_920
*17708 FILLER_186_923
*17709 FILLER_186_925
*17710 FILLER_186_928
*17711 FILLER_186_931
*17712 FILLER_186_934
*17713 FILLER_186_937
*17714 FILLER_186_94
*17715 FILLER_186_940
*17716 FILLER_186_943
*17717 FILLER_186_946
*17718 FILLER_186_949
*17719 FILLER_186_952
*17720 FILLER_186_955
*17721 FILLER_186_958
*17722 FILLER_186_961
*17723 FILLER_186_964
*17724 FILLER_186_967
*17725 FILLER_186_97
*17726 FILLER_186_970
*17727 FILLER_186_973
*17728 FILLER_186_976
*17729 FILLER_186_979
*17730 FILLER_186_981
*17731 FILLER_186_984
*17732 FILLER_186_987
*17733 FILLER_186_990
*17734 FILLER_186_993
*17735 FILLER_186_996
*17736 FILLER_186_999
*17737 FILLER_187_1001
*17738 FILLER_187_1004
*17739 FILLER_187_1007
*17740 FILLER_187_1009
*17741 FILLER_187_1012
*17742 FILLER_187_1015
*17743 FILLER_187_1018
*17744 FILLER_187_102
*17745 FILLER_187_1021
*17746 FILLER_187_1024
*17747 FILLER_187_1027
*17748 FILLER_187_1030
*17749 FILLER_187_1033
*17750 FILLER_187_1036
*17751 FILLER_187_1039
*17752 FILLER_187_1042
*17753 FILLER_187_1045
*17754 FILLER_187_1048
*17755 FILLER_187_105
*17756 FILLER_187_1051
*17757 FILLER_187_1054
*17758 FILLER_187_1057
*17759 FILLER_187_1060
*17760 FILLER_187_1063
*17761 FILLER_187_1065
*17762 FILLER_187_1068
*17763 FILLER_187_1071
*17764 FILLER_187_1074
*17765 FILLER_187_1077
*17766 FILLER_187_108
*17767 FILLER_187_1080
*17768 FILLER_187_1083
*17769 FILLER_187_1086
*17770 FILLER_187_1089
*17771 FILLER_187_1092
*17772 FILLER_187_1095
*17773 FILLER_187_1098
*17774 FILLER_187_1101
*17775 FILLER_187_1104
*17776 FILLER_187_1107
*17777 FILLER_187_111
*17778 FILLER_187_1110
*17779 FILLER_187_1113
*17780 FILLER_187_1116
*17781 FILLER_187_1119
*17782 FILLER_187_1121
*17783 FILLER_187_1124
*17784 FILLER_187_1127
*17785 FILLER_187_113
*17786 FILLER_187_1130
*17787 FILLER_187_1133
*17788 FILLER_187_1136
*17789 FILLER_187_1139
*17790 FILLER_187_1142
*17791 FILLER_187_1145
*17792 FILLER_187_1148
*17793 FILLER_187_1151
*17794 FILLER_187_1154
*17795 FILLER_187_1157
*17796 FILLER_187_116
*17797 FILLER_187_1160
*17798 FILLER_187_1163
*17799 FILLER_187_1166
*17800 FILLER_187_1169
*17801 FILLER_187_1172
*17802 FILLER_187_1175
*17803 FILLER_187_1177
*17804 FILLER_187_1180
*17805 FILLER_187_1183
*17806 FILLER_187_1186
*17807 FILLER_187_1189
*17808 FILLER_187_119
*17809 FILLER_187_1192
*17810 FILLER_187_1195
*17811 FILLER_187_1198
*17812 FILLER_187_12
*17813 FILLER_187_1201
*17814 FILLER_187_1204
*17815 FILLER_187_1207
*17816 FILLER_187_1210
*17817 FILLER_187_1213
*17818 FILLER_187_1216
*17819 FILLER_187_1219
*17820 FILLER_187_122
*17821 FILLER_187_1222
*17822 FILLER_187_1225
*17823 FILLER_187_1228
*17824 FILLER_187_1231
*17825 FILLER_187_1233
*17826 FILLER_187_1236
*17827 FILLER_187_1239
*17828 FILLER_187_1242
*17829 FILLER_187_1245
*17830 FILLER_187_1248
*17831 FILLER_187_125
*17832 FILLER_187_1251
*17833 FILLER_187_1254
*17834 FILLER_187_1257
*17835 FILLER_187_1260
*17836 FILLER_187_1263
*17837 FILLER_187_1266
*17838 FILLER_187_1269
*17839 FILLER_187_1272
*17840 FILLER_187_1275
*17841 FILLER_187_1278
*17842 FILLER_187_128
*17843 FILLER_187_1281
*17844 FILLER_187_1284
*17845 FILLER_187_1287
*17846 FILLER_187_1289
*17847 FILLER_187_1292
*17848 FILLER_187_1295
*17849 FILLER_187_1298
*17850 FILLER_187_1301
*17851 FILLER_187_1304
*17852 FILLER_187_1307
*17853 FILLER_187_131
*17854 FILLER_187_1310
*17855 FILLER_187_1313
*17856 FILLER_187_1316
*17857 FILLER_187_1319
*17858 FILLER_187_1322
*17859 FILLER_187_1325
*17860 FILLER_187_1328
*17861 FILLER_187_1331
*17862 FILLER_187_1334
*17863 FILLER_187_1337
*17864 FILLER_187_134
*17865 FILLER_187_1340
*17866 FILLER_187_1343
*17867 FILLER_187_1345
*17868 FILLER_187_1348
*17869 FILLER_187_1351
*17870 FILLER_187_1354
*17871 FILLER_187_1357
*17872 FILLER_187_1360
*17873 FILLER_187_1363
*17874 FILLER_187_137
*17875 FILLER_187_140
*17876 FILLER_187_143
*17877 FILLER_187_146
*17878 FILLER_187_149
*17879 FILLER_187_15
*17880 FILLER_187_152
*17881 FILLER_187_155
*17882 FILLER_187_158
*17883 FILLER_187_161
*17884 FILLER_187_164
*17885 FILLER_187_167
*17886 FILLER_187_169
*17887 FILLER_187_172
*17888 FILLER_187_175
*17889 FILLER_187_178
*17890 FILLER_187_18
*17891 FILLER_187_181
*17892 FILLER_187_184
*17893 FILLER_187_187
*17894 FILLER_187_190
*17895 FILLER_187_193
*17896 FILLER_187_196
*17897 FILLER_187_199
*17898 FILLER_187_202
*17899 FILLER_187_205
*17900 FILLER_187_208
*17901 FILLER_187_21
*17902 FILLER_187_211
*17903 FILLER_187_214
*17904 FILLER_187_217
*17905 FILLER_187_220
*17906 FILLER_187_223
*17907 FILLER_187_225
*17908 FILLER_187_228
*17909 FILLER_187_231
*17910 FILLER_187_234
*17911 FILLER_187_237
*17912 FILLER_187_24
*17913 FILLER_187_240
*17914 FILLER_187_243
*17915 FILLER_187_246
*17916 FILLER_187_249
*17917 FILLER_187_252
*17918 FILLER_187_255
*17919 FILLER_187_258
*17920 FILLER_187_261
*17921 FILLER_187_264
*17922 FILLER_187_267
*17923 FILLER_187_27
*17924 FILLER_187_270
*17925 FILLER_187_273
*17926 FILLER_187_276
*17927 FILLER_187_279
*17928 FILLER_187_281
*17929 FILLER_187_284
*17930 FILLER_187_287
*17931 FILLER_187_290
*17932 FILLER_187_293
*17933 FILLER_187_296
*17934 FILLER_187_299
*17935 FILLER_187_3
*17936 FILLER_187_30
*17937 FILLER_187_302
*17938 FILLER_187_305
*17939 FILLER_187_308
*17940 FILLER_187_311
*17941 FILLER_187_314
*17942 FILLER_187_317
*17943 FILLER_187_320
*17944 FILLER_187_323
*17945 FILLER_187_326
*17946 FILLER_187_329
*17947 FILLER_187_33
*17948 FILLER_187_332
*17949 FILLER_187_335
*17950 FILLER_187_337
*17951 FILLER_187_340
*17952 FILLER_187_343
*17953 FILLER_187_346
*17954 FILLER_187_349
*17955 FILLER_187_352
*17956 FILLER_187_355
*17957 FILLER_187_358
*17958 FILLER_187_36
*17959 FILLER_187_361
*17960 FILLER_187_364
*17961 FILLER_187_367
*17962 FILLER_187_370
*17963 FILLER_187_373
*17964 FILLER_187_376
*17965 FILLER_187_379
*17966 FILLER_187_382
*17967 FILLER_187_385
*17968 FILLER_187_388
*17969 FILLER_187_39
*17970 FILLER_187_391
*17971 FILLER_187_393
*17972 FILLER_187_396
*17973 FILLER_187_399
*17974 FILLER_187_402
*17975 FILLER_187_405
*17976 FILLER_187_408
*17977 FILLER_187_411
*17978 FILLER_187_414
*17979 FILLER_187_417
*17980 FILLER_187_42
*17981 FILLER_187_420
*17982 FILLER_187_423
*17983 FILLER_187_426
*17984 FILLER_187_429
*17985 FILLER_187_432
*17986 FILLER_187_435
*17987 FILLER_187_438
*17988 FILLER_187_441
*17989 FILLER_187_444
*17990 FILLER_187_447
*17991 FILLER_187_449
*17992 FILLER_187_45
*17993 FILLER_187_452
*17994 FILLER_187_455
*17995 FILLER_187_458
*17996 FILLER_187_461
*17997 FILLER_187_464
*17998 FILLER_187_467
*17999 FILLER_187_470
*18000 FILLER_187_473
*18001 FILLER_187_476
*18002 FILLER_187_479
*18003 FILLER_187_48
*18004 FILLER_187_482
*18005 FILLER_187_485
*18006 FILLER_187_488
*18007 FILLER_187_491
*18008 FILLER_187_494
*18009 FILLER_187_497
*18010 FILLER_187_500
*18011 FILLER_187_503
*18012 FILLER_187_505
*18013 FILLER_187_508
*18014 FILLER_187_51
*18015 FILLER_187_511
*18016 FILLER_187_514
*18017 FILLER_187_517
*18018 FILLER_187_520
*18019 FILLER_187_523
*18020 FILLER_187_526
*18021 FILLER_187_529
*18022 FILLER_187_532
*18023 FILLER_187_535
*18024 FILLER_187_538
*18025 FILLER_187_54
*18026 FILLER_187_541
*18027 FILLER_187_544
*18028 FILLER_187_547
*18029 FILLER_187_550
*18030 FILLER_187_553
*18031 FILLER_187_556
*18032 FILLER_187_559
*18033 FILLER_187_561
*18034 FILLER_187_564
*18035 FILLER_187_567
*18036 FILLER_187_57
*18037 FILLER_187_570
*18038 FILLER_187_573
*18039 FILLER_187_576
*18040 FILLER_187_579
*18041 FILLER_187_582
*18042 FILLER_187_585
*18043 FILLER_187_588
*18044 FILLER_187_591
*18045 FILLER_187_594
*18046 FILLER_187_597
*18047 FILLER_187_6
*18048 FILLER_187_60
*18049 FILLER_187_600
*18050 FILLER_187_603
*18051 FILLER_187_606
*18052 FILLER_187_609
*18053 FILLER_187_612
*18054 FILLER_187_615
*18055 FILLER_187_617
*18056 FILLER_187_620
*18057 FILLER_187_623
*18058 FILLER_187_626
*18059 FILLER_187_629
*18060 FILLER_187_63
*18061 FILLER_187_632
*18062 FILLER_187_635
*18063 FILLER_187_638
*18064 FILLER_187_641
*18065 FILLER_187_644
*18066 FILLER_187_647
*18067 FILLER_187_650
*18068 FILLER_187_653
*18069 FILLER_187_656
*18070 FILLER_187_659
*18071 FILLER_187_66
*18072 FILLER_187_662
*18073 FILLER_187_665
*18074 FILLER_187_668
*18075 FILLER_187_671
*18076 FILLER_187_673
*18077 FILLER_187_676
*18078 FILLER_187_679
*18079 FILLER_187_682
*18080 FILLER_187_685
*18081 FILLER_187_688
*18082 FILLER_187_69
*18083 FILLER_187_691
*18084 FILLER_187_694
*18085 FILLER_187_697
*18086 FILLER_187_700
*18087 FILLER_187_703
*18088 FILLER_187_706
*18089 FILLER_187_709
*18090 FILLER_187_712
*18091 FILLER_187_715
*18092 FILLER_187_718
*18093 FILLER_187_72
*18094 FILLER_187_721
*18095 FILLER_187_724
*18096 FILLER_187_727
*18097 FILLER_187_729
*18098 FILLER_187_732
*18099 FILLER_187_735
*18100 FILLER_187_738
*18101 FILLER_187_741
*18102 FILLER_187_744
*18103 FILLER_187_747
*18104 FILLER_187_75
*18105 FILLER_187_750
*18106 FILLER_187_753
*18107 FILLER_187_756
*18108 FILLER_187_759
*18109 FILLER_187_762
*18110 FILLER_187_765
*18111 FILLER_187_768
*18112 FILLER_187_771
*18113 FILLER_187_774
*18114 FILLER_187_777
*18115 FILLER_187_78
*18116 FILLER_187_780
*18117 FILLER_187_783
*18118 FILLER_187_785
*18119 FILLER_187_788
*18120 FILLER_187_791
*18121 FILLER_187_794
*18122 FILLER_187_797
*18123 FILLER_187_800
*18124 FILLER_187_803
*18125 FILLER_187_806
*18126 FILLER_187_809
*18127 FILLER_187_81
*18128 FILLER_187_812
*18129 FILLER_187_815
*18130 FILLER_187_818
*18131 FILLER_187_821
*18132 FILLER_187_824
*18133 FILLER_187_827
*18134 FILLER_187_830
*18135 FILLER_187_833
*18136 FILLER_187_836
*18137 FILLER_187_839
*18138 FILLER_187_84
*18139 FILLER_187_841
*18140 FILLER_187_844
*18141 FILLER_187_847
*18142 FILLER_187_850
*18143 FILLER_187_853
*18144 FILLER_187_856
*18145 FILLER_187_859
*18146 FILLER_187_862
*18147 FILLER_187_865
*18148 FILLER_187_868
*18149 FILLER_187_87
*18150 FILLER_187_871
*18151 FILLER_187_874
*18152 FILLER_187_877
*18153 FILLER_187_880
*18154 FILLER_187_883
*18155 FILLER_187_886
*18156 FILLER_187_889
*18157 FILLER_187_892
*18158 FILLER_187_895
*18159 FILLER_187_897
*18160 FILLER_187_9
*18161 FILLER_187_90
*18162 FILLER_187_900
*18163 FILLER_187_903
*18164 FILLER_187_906
*18165 FILLER_187_909
*18166 FILLER_187_912
*18167 FILLER_187_915
*18168 FILLER_187_918
*18169 FILLER_187_921
*18170 FILLER_187_924
*18171 FILLER_187_927
*18172 FILLER_187_93
*18173 FILLER_187_930
*18174 FILLER_187_933
*18175 FILLER_187_936
*18176 FILLER_187_939
*18177 FILLER_187_942
*18178 FILLER_187_945
*18179 FILLER_187_948
*18180 FILLER_187_951
*18181 FILLER_187_953
*18182 FILLER_187_956
*18183 FILLER_187_959
*18184 FILLER_187_96
*18185 FILLER_187_962
*18186 FILLER_187_965
*18187 FILLER_187_968
*18188 FILLER_187_971
*18189 FILLER_187_974
*18190 FILLER_187_977
*18191 FILLER_187_980
*18192 FILLER_187_983
*18193 FILLER_187_986
*18194 FILLER_187_989
*18195 FILLER_187_99
*18196 FILLER_187_992
*18197 FILLER_187_995
*18198 FILLER_187_998
*18199 FILLER_188_100
*18200 FILLER_188_1002
*18201 FILLER_188_1005
*18202 FILLER_188_1008
*18203 FILLER_188_1011
*18204 FILLER_188_1014
*18205 FILLER_188_1017
*18206 FILLER_188_1020
*18207 FILLER_188_1023
*18208 FILLER_188_1026
*18209 FILLER_188_1029
*18210 FILLER_188_103
*18211 FILLER_188_1032
*18212 FILLER_188_1035
*18213 FILLER_188_1037
*18214 FILLER_188_1040
*18215 FILLER_188_1043
*18216 FILLER_188_1046
*18217 FILLER_188_1049
*18218 FILLER_188_1052
*18219 FILLER_188_1055
*18220 FILLER_188_1058
*18221 FILLER_188_106
*18222 FILLER_188_1061
*18223 FILLER_188_1064
*18224 FILLER_188_1067
*18225 FILLER_188_1070
*18226 FILLER_188_1073
*18227 FILLER_188_1076
*18228 FILLER_188_1079
*18229 FILLER_188_1082
*18230 FILLER_188_1085
*18231 FILLER_188_1088
*18232 FILLER_188_109
*18233 FILLER_188_1091
*18234 FILLER_188_1093
*18235 FILLER_188_1096
*18236 FILLER_188_1099
*18237 FILLER_188_1102
*18238 FILLER_188_1105
*18239 FILLER_188_1108
*18240 FILLER_188_1111
*18241 FILLER_188_1114
*18242 FILLER_188_1117
*18243 FILLER_188_112
*18244 FILLER_188_1120
*18245 FILLER_188_1123
*18246 FILLER_188_1126
*18247 FILLER_188_1129
*18248 FILLER_188_1132
*18249 FILLER_188_1135
*18250 FILLER_188_1138
*18251 FILLER_188_1141
*18252 FILLER_188_1144
*18253 FILLER_188_1147
*18254 FILLER_188_1149
*18255 FILLER_188_115
*18256 FILLER_188_1152
*18257 FILLER_188_1155
*18258 FILLER_188_1158
*18259 FILLER_188_1161
*18260 FILLER_188_1164
*18261 FILLER_188_1167
*18262 FILLER_188_1170
*18263 FILLER_188_1173
*18264 FILLER_188_1176
*18265 FILLER_188_1179
*18266 FILLER_188_118
*18267 FILLER_188_1182
*18268 FILLER_188_1185
*18269 FILLER_188_1188
*18270 FILLER_188_1191
*18271 FILLER_188_1194
*18272 FILLER_188_1197
*18273 FILLER_188_12
*18274 FILLER_188_1200
*18275 FILLER_188_1203
*18276 FILLER_188_1205
*18277 FILLER_188_1208
*18278 FILLER_188_121
*18279 FILLER_188_1211
*18280 FILLER_188_1214
*18281 FILLER_188_1217
*18282 FILLER_188_1220
*18283 FILLER_188_1223
*18284 FILLER_188_1226
*18285 FILLER_188_1229
*18286 FILLER_188_1232
*18287 FILLER_188_1235
*18288 FILLER_188_1238
*18289 FILLER_188_124
*18290 FILLER_188_1241
*18291 FILLER_188_1244
*18292 FILLER_188_1247
*18293 FILLER_188_1250
*18294 FILLER_188_1253
*18295 FILLER_188_1256
*18296 FILLER_188_1259
*18297 FILLER_188_1261
*18298 FILLER_188_1264
*18299 FILLER_188_1267
*18300 FILLER_188_127
*18301 FILLER_188_1270
*18302 FILLER_188_1273
*18303 FILLER_188_1276
*18304 FILLER_188_1279
*18305 FILLER_188_1282
*18306 FILLER_188_1285
*18307 FILLER_188_1288
*18308 FILLER_188_1291
*18309 FILLER_188_1294
*18310 FILLER_188_1297
*18311 FILLER_188_130
*18312 FILLER_188_1300
*18313 FILLER_188_1303
*18314 FILLER_188_1306
*18315 FILLER_188_1309
*18316 FILLER_188_1312
*18317 FILLER_188_1315
*18318 FILLER_188_1317
*18319 FILLER_188_1320
*18320 FILLER_188_1323
*18321 FILLER_188_1326
*18322 FILLER_188_1329
*18323 FILLER_188_133
*18324 FILLER_188_1332
*18325 FILLER_188_1335
*18326 FILLER_188_1338
*18327 FILLER_188_1341
*18328 FILLER_188_1344
*18329 FILLER_188_1347
*18330 FILLER_188_1350
*18331 FILLER_188_1353
*18332 FILLER_188_1356
*18333 FILLER_188_1359
*18334 FILLER_188_136
*18335 FILLER_188_1362
*18336 FILLER_188_139
*18337 FILLER_188_141
*18338 FILLER_188_144
*18339 FILLER_188_147
*18340 FILLER_188_15
*18341 FILLER_188_150
*18342 FILLER_188_153
*18343 FILLER_188_156
*18344 FILLER_188_159
*18345 FILLER_188_162
*18346 FILLER_188_165
*18347 FILLER_188_168
*18348 FILLER_188_171
*18349 FILLER_188_174
*18350 FILLER_188_177
*18351 FILLER_188_18
*18352 FILLER_188_180
*18353 FILLER_188_183
*18354 FILLER_188_186
*18355 FILLER_188_189
*18356 FILLER_188_192
*18357 FILLER_188_195
*18358 FILLER_188_197
*18359 FILLER_188_200
*18360 FILLER_188_203
*18361 FILLER_188_206
*18362 FILLER_188_209
*18363 FILLER_188_21
*18364 FILLER_188_212
*18365 FILLER_188_215
*18366 FILLER_188_218
*18367 FILLER_188_221
*18368 FILLER_188_224
*18369 FILLER_188_227
*18370 FILLER_188_230
*18371 FILLER_188_233
*18372 FILLER_188_236
*18373 FILLER_188_239
*18374 FILLER_188_24
*18375 FILLER_188_242
*18376 FILLER_188_245
*18377 FILLER_188_248
*18378 FILLER_188_251
*18379 FILLER_188_253
*18380 FILLER_188_256
*18381 FILLER_188_259
*18382 FILLER_188_262
*18383 FILLER_188_265
*18384 FILLER_188_268
*18385 FILLER_188_27
*18386 FILLER_188_271
*18387 FILLER_188_274
*18388 FILLER_188_277
*18389 FILLER_188_280
*18390 FILLER_188_283
*18391 FILLER_188_286
*18392 FILLER_188_289
*18393 FILLER_188_29
*18394 FILLER_188_292
*18395 FILLER_188_295
*18396 FILLER_188_298
*18397 FILLER_188_3
*18398 FILLER_188_301
*18399 FILLER_188_304
*18400 FILLER_188_307
*18401 FILLER_188_309
*18402 FILLER_188_312
*18403 FILLER_188_315
*18404 FILLER_188_318
*18405 FILLER_188_32
*18406 FILLER_188_321
*18407 FILLER_188_324
*18408 FILLER_188_327
*18409 FILLER_188_330
*18410 FILLER_188_333
*18411 FILLER_188_336
*18412 FILLER_188_339
*18413 FILLER_188_342
*18414 FILLER_188_345
*18415 FILLER_188_348
*18416 FILLER_188_35
*18417 FILLER_188_351
*18418 FILLER_188_354
*18419 FILLER_188_357
*18420 FILLER_188_360
*18421 FILLER_188_363
*18422 FILLER_188_365
*18423 FILLER_188_368
*18424 FILLER_188_371
*18425 FILLER_188_374
*18426 FILLER_188_377
*18427 FILLER_188_38
*18428 FILLER_188_380
*18429 FILLER_188_383
*18430 FILLER_188_386
*18431 FILLER_188_389
*18432 FILLER_188_392
*18433 FILLER_188_395
*18434 FILLER_188_398
*18435 FILLER_188_401
*18436 FILLER_188_404
*18437 FILLER_188_407
*18438 FILLER_188_41
*18439 FILLER_188_410
*18440 FILLER_188_413
*18441 FILLER_188_416
*18442 FILLER_188_419
*18443 FILLER_188_421
*18444 FILLER_188_424
*18445 FILLER_188_427
*18446 FILLER_188_430
*18447 FILLER_188_433
*18448 FILLER_188_436
*18449 FILLER_188_439
*18450 FILLER_188_44
*18451 FILLER_188_442
*18452 FILLER_188_445
*18453 FILLER_188_448
*18454 FILLER_188_451
*18455 FILLER_188_454
*18456 FILLER_188_457
*18457 FILLER_188_460
*18458 FILLER_188_463
*18459 FILLER_188_466
*18460 FILLER_188_469
*18461 FILLER_188_47
*18462 FILLER_188_472
*18463 FILLER_188_475
*18464 FILLER_188_477
*18465 FILLER_188_480
*18466 FILLER_188_483
*18467 FILLER_188_486
*18468 FILLER_188_489
*18469 FILLER_188_492
*18470 FILLER_188_495
*18471 FILLER_188_498
*18472 FILLER_188_50
*18473 FILLER_188_501
*18474 FILLER_188_504
*18475 FILLER_188_507
*18476 FILLER_188_510
*18477 FILLER_188_513
*18478 FILLER_188_516
*18479 FILLER_188_519
*18480 FILLER_188_522
*18481 FILLER_188_525
*18482 FILLER_188_528
*18483 FILLER_188_53
*18484 FILLER_188_531
*18485 FILLER_188_533
*18486 FILLER_188_536
*18487 FILLER_188_539
*18488 FILLER_188_542
*18489 FILLER_188_545
*18490 FILLER_188_548
*18491 FILLER_188_551
*18492 FILLER_188_554
*18493 FILLER_188_557
*18494 FILLER_188_56
*18495 FILLER_188_560
*18496 FILLER_188_563
*18497 FILLER_188_566
*18498 FILLER_188_569
*18499 FILLER_188_572
*18500 FILLER_188_575
*18501 FILLER_188_578
*18502 FILLER_188_581
*18503 FILLER_188_584
*18504 FILLER_188_587
*18505 FILLER_188_589
*18506 FILLER_188_59
*18507 FILLER_188_592
*18508 FILLER_188_595
*18509 FILLER_188_598
*18510 FILLER_188_6
*18511 FILLER_188_601
*18512 FILLER_188_604
*18513 FILLER_188_607
*18514 FILLER_188_610
*18515 FILLER_188_613
*18516 FILLER_188_616
*18517 FILLER_188_619
*18518 FILLER_188_62
*18519 FILLER_188_622
*18520 FILLER_188_625
*18521 FILLER_188_628
*18522 FILLER_188_631
*18523 FILLER_188_634
*18524 FILLER_188_637
*18525 FILLER_188_640
*18526 FILLER_188_643
*18527 FILLER_188_645
*18528 FILLER_188_648
*18529 FILLER_188_65
*18530 FILLER_188_651
*18531 FILLER_188_654
*18532 FILLER_188_657
*18533 FILLER_188_660
*18534 FILLER_188_663
*18535 FILLER_188_666
*18536 FILLER_188_669
*18537 FILLER_188_672
*18538 FILLER_188_675
*18539 FILLER_188_678
*18540 FILLER_188_68
*18541 FILLER_188_681
*18542 FILLER_188_684
*18543 FILLER_188_687
*18544 FILLER_188_690
*18545 FILLER_188_693
*18546 FILLER_188_696
*18547 FILLER_188_699
*18548 FILLER_188_701
*18549 FILLER_188_704
*18550 FILLER_188_707
*18551 FILLER_188_71
*18552 FILLER_188_710
*18553 FILLER_188_713
*18554 FILLER_188_716
*18555 FILLER_188_719
*18556 FILLER_188_722
*18557 FILLER_188_725
*18558 FILLER_188_728
*18559 FILLER_188_731
*18560 FILLER_188_734
*18561 FILLER_188_737
*18562 FILLER_188_74
*18563 FILLER_188_740
*18564 FILLER_188_743
*18565 FILLER_188_746
*18566 FILLER_188_749
*18567 FILLER_188_752
*18568 FILLER_188_755
*18569 FILLER_188_757
*18570 FILLER_188_760
*18571 FILLER_188_763
*18572 FILLER_188_766
*18573 FILLER_188_769
*18574 FILLER_188_77
*18575 FILLER_188_772
*18576 FILLER_188_775
*18577 FILLER_188_778
*18578 FILLER_188_781
*18579 FILLER_188_784
*18580 FILLER_188_787
*18581 FILLER_188_790
*18582 FILLER_188_793
*18583 FILLER_188_796
*18584 FILLER_188_799
*18585 FILLER_188_80
*18586 FILLER_188_802
*18587 FILLER_188_805
*18588 FILLER_188_808
*18589 FILLER_188_811
*18590 FILLER_188_813
*18591 FILLER_188_816
*18592 FILLER_188_819
*18593 FILLER_188_822
*18594 FILLER_188_825
*18595 FILLER_188_828
*18596 FILLER_188_83
*18597 FILLER_188_831
*18598 FILLER_188_834
*18599 FILLER_188_837
*18600 FILLER_188_840
*18601 FILLER_188_843
*18602 FILLER_188_846
*18603 FILLER_188_849
*18604 FILLER_188_85
*18605 FILLER_188_852
*18606 FILLER_188_855
*18607 FILLER_188_858
*18608 FILLER_188_861
*18609 FILLER_188_864
*18610 FILLER_188_867
*18611 FILLER_188_869
*18612 FILLER_188_872
*18613 FILLER_188_875
*18614 FILLER_188_878
*18615 FILLER_188_88
*18616 FILLER_188_881
*18617 FILLER_188_884
*18618 FILLER_188_887
*18619 FILLER_188_890
*18620 FILLER_188_893
*18621 FILLER_188_896
*18622 FILLER_188_899
*18623 FILLER_188_9
*18624 FILLER_188_902
*18625 FILLER_188_905
*18626 FILLER_188_908
*18627 FILLER_188_91
*18628 FILLER_188_911
*18629 FILLER_188_914
*18630 FILLER_188_917
*18631 FILLER_188_920
*18632 FILLER_188_923
*18633 FILLER_188_925
*18634 FILLER_188_928
*18635 FILLER_188_931
*18636 FILLER_188_934
*18637 FILLER_188_937
*18638 FILLER_188_94
*18639 FILLER_188_940
*18640 FILLER_188_943
*18641 FILLER_188_946
*18642 FILLER_188_949
*18643 FILLER_188_952
*18644 FILLER_188_955
*18645 FILLER_188_958
*18646 FILLER_188_961
*18647 FILLER_188_964
*18648 FILLER_188_967
*18649 FILLER_188_97
*18650 FILLER_188_970
*18651 FILLER_188_973
*18652 FILLER_188_976
*18653 FILLER_188_979
*18654 FILLER_188_981
*18655 FILLER_188_984
*18656 FILLER_188_987
*18657 FILLER_188_990
*18658 FILLER_188_993
*18659 FILLER_188_996
*18660 FILLER_188_999
*18661 FILLER_189_100
*18662 FILLER_189_1002
*18663 FILLER_189_1005
*18664 FILLER_189_1009
*18665 FILLER_189_1012
*18666 FILLER_189_1015
*18667 FILLER_189_1018
*18668 FILLER_189_1021
*18669 FILLER_189_1024
*18670 FILLER_189_1027
*18671 FILLER_189_103
*18672 FILLER_189_1030
*18673 FILLER_189_1033
*18674 FILLER_189_1037
*18675 FILLER_189_1040
*18676 FILLER_189_1043
*18677 FILLER_189_1046
*18678 FILLER_189_1049
*18679 FILLER_189_1052
*18680 FILLER_189_1055
*18681 FILLER_189_1058
*18682 FILLER_189_106
*18683 FILLER_189_1061
*18684 FILLER_189_1065
*18685 FILLER_189_1068
*18686 FILLER_189_1071
*18687 FILLER_189_1074
*18688 FILLER_189_1077
*18689 FILLER_189_1080
*18690 FILLER_189_1083
*18691 FILLER_189_1086
*18692 FILLER_189_1089
*18693 FILLER_189_109
*18694 FILLER_189_1093
*18695 FILLER_189_1096
*18696 FILLER_189_1099
*18697 FILLER_189_1102
*18698 FILLER_189_1105
*18699 FILLER_189_1108
*18700 FILLER_189_1111
*18701 FILLER_189_1114
*18702 FILLER_189_1117
*18703 FILLER_189_1121
*18704 FILLER_189_1124
*18705 FILLER_189_1127
*18706 FILLER_189_113
*18707 FILLER_189_1130
*18708 FILLER_189_1133
*18709 FILLER_189_1136
*18710 FILLER_189_1139
*18711 FILLER_189_1142
*18712 FILLER_189_1145
*18713 FILLER_189_1149
*18714 FILLER_189_1152
*18715 FILLER_189_1155
*18716 FILLER_189_1158
*18717 FILLER_189_116
*18718 FILLER_189_1161
*18719 FILLER_189_1164
*18720 FILLER_189_1167
*18721 FILLER_189_1170
*18722 FILLER_189_1173
*18723 FILLER_189_1177
*18724 FILLER_189_1180
*18725 FILLER_189_1183
*18726 FILLER_189_1186
*18727 FILLER_189_1189
*18728 FILLER_189_119
*18729 FILLER_189_1192
*18730 FILLER_189_1195
*18731 FILLER_189_1198
*18732 FILLER_189_12
*18733 FILLER_189_1201
*18734 FILLER_189_1205
*18735 FILLER_189_1208
*18736 FILLER_189_1211
*18737 FILLER_189_1214
*18738 FILLER_189_1217
*18739 FILLER_189_122
*18740 FILLER_189_1220
*18741 FILLER_189_1223
*18742 FILLER_189_1226
*18743 FILLER_189_1229
*18744 FILLER_189_1233
*18745 FILLER_189_1236
*18746 FILLER_189_1239
*18747 FILLER_189_1242
*18748 FILLER_189_1245
*18749 FILLER_189_1248
*18750 FILLER_189_125
*18751 FILLER_189_1251
*18752 FILLER_189_1254
*18753 FILLER_189_1257
*18754 FILLER_189_1261
*18755 FILLER_189_1264
*18756 FILLER_189_1267
*18757 FILLER_189_1270
*18758 FILLER_189_1273
*18759 FILLER_189_1276
*18760 FILLER_189_1279
*18761 FILLER_189_128
*18762 FILLER_189_1282
*18763 FILLER_189_1285
*18764 FILLER_189_1289
*18765 FILLER_189_1292
*18766 FILLER_189_1295
*18767 FILLER_189_1298
*18768 FILLER_189_1301
*18769 FILLER_189_1304
*18770 FILLER_189_1307
*18771 FILLER_189_131
*18772 FILLER_189_1310
*18773 FILLER_189_1313
*18774 FILLER_189_1317
*18775 FILLER_189_1320
*18776 FILLER_189_1323
*18777 FILLER_189_1326
*18778 FILLER_189_1329
*18779 FILLER_189_1332
*18780 FILLER_189_1335
*18781 FILLER_189_1338
*18782 FILLER_189_134
*18783 FILLER_189_1341
*18784 FILLER_189_1345
*18785 FILLER_189_1348
*18786 FILLER_189_1351
*18787 FILLER_189_1354
*18788 FILLER_189_1357
*18789 FILLER_189_1360
*18790 FILLER_189_1363
*18791 FILLER_189_137
*18792 FILLER_189_141
*18793 FILLER_189_144
*18794 FILLER_189_147
*18795 FILLER_189_15
*18796 FILLER_189_150
*18797 FILLER_189_153
*18798 FILLER_189_156
*18799 FILLER_189_159
*18800 FILLER_189_162
*18801 FILLER_189_165
*18802 FILLER_189_169
*18803 FILLER_189_172
*18804 FILLER_189_175
*18805 FILLER_189_178
*18806 FILLER_189_18
*18807 FILLER_189_181
*18808 FILLER_189_184
*18809 FILLER_189_187
*18810 FILLER_189_190
*18811 FILLER_189_193
*18812 FILLER_189_197
*18813 FILLER_189_200
*18814 FILLER_189_203
*18815 FILLER_189_206
*18816 FILLER_189_209
*18817 FILLER_189_21
*18818 FILLER_189_212
*18819 FILLER_189_215
*18820 FILLER_189_218
*18821 FILLER_189_221
*18822 FILLER_189_225
*18823 FILLER_189_228
*18824 FILLER_189_231
*18825 FILLER_189_234
*18826 FILLER_189_237
*18827 FILLER_189_24
*18828 FILLER_189_240
*18829 FILLER_189_243
*18830 FILLER_189_246
*18831 FILLER_189_249
*18832 FILLER_189_253
*18833 FILLER_189_256
*18834 FILLER_189_259
*18835 FILLER_189_262
*18836 FILLER_189_265
*18837 FILLER_189_268
*18838 FILLER_189_27
*18839 FILLER_189_271
*18840 FILLER_189_274
*18841 FILLER_189_277
*18842 FILLER_189_281
*18843 FILLER_189_284
*18844 FILLER_189_287
*18845 FILLER_189_29
*18846 FILLER_189_290
*18847 FILLER_189_293
*18848 FILLER_189_296
*18849 FILLER_189_299
*18850 FILLER_189_3
*18851 FILLER_189_302
*18852 FILLER_189_305
*18853 FILLER_189_309
*18854 FILLER_189_312
*18855 FILLER_189_315
*18856 FILLER_189_318
*18857 FILLER_189_32
*18858 FILLER_189_321
*18859 FILLER_189_324
*18860 FILLER_189_327
*18861 FILLER_189_330
*18862 FILLER_189_333
*18863 FILLER_189_337
*18864 FILLER_189_340
*18865 FILLER_189_343
*18866 FILLER_189_346
*18867 FILLER_189_349
*18868 FILLER_189_35
*18869 FILLER_189_352
*18870 FILLER_189_355
*18871 FILLER_189_358
*18872 FILLER_189_361
*18873 FILLER_189_365
*18874 FILLER_189_368
*18875 FILLER_189_371
*18876 FILLER_189_374
*18877 FILLER_189_377
*18878 FILLER_189_38
*18879 FILLER_189_380
*18880 FILLER_189_383
*18881 FILLER_189_386
*18882 FILLER_189_389
*18883 FILLER_189_393
*18884 FILLER_189_396
*18885 FILLER_189_399
*18886 FILLER_189_402
*18887 FILLER_189_405
*18888 FILLER_189_408
*18889 FILLER_189_41
*18890 FILLER_189_411
*18891 FILLER_189_414
*18892 FILLER_189_417
*18893 FILLER_189_421
*18894 FILLER_189_424
*18895 FILLER_189_427
*18896 FILLER_189_430
*18897 FILLER_189_433
*18898 FILLER_189_436
*18899 FILLER_189_439
*18900 FILLER_189_44
*18901 FILLER_189_442
*18902 FILLER_189_445
*18903 FILLER_189_449
*18904 FILLER_189_452
*18905 FILLER_189_455
*18906 FILLER_189_458
*18907 FILLER_189_461
*18908 FILLER_189_464
*18909 FILLER_189_467
*18910 FILLER_189_47
*18911 FILLER_189_470
*18912 FILLER_189_473
*18913 FILLER_189_477
*18914 FILLER_189_480
*18915 FILLER_189_483
*18916 FILLER_189_486
*18917 FILLER_189_489
*18918 FILLER_189_492
*18919 FILLER_189_495
*18920 FILLER_189_498
*18921 FILLER_189_50
*18922 FILLER_189_501
*18923 FILLER_189_505
*18924 FILLER_189_508
*18925 FILLER_189_511
*18926 FILLER_189_514
*18927 FILLER_189_517
*18928 FILLER_189_520
*18929 FILLER_189_523
*18930 FILLER_189_526
*18931 FILLER_189_529
*18932 FILLER_189_53
*18933 FILLER_189_533
*18934 FILLER_189_536
*18935 FILLER_189_539
*18936 FILLER_189_542
*18937 FILLER_189_545
*18938 FILLER_189_548
*18939 FILLER_189_551
*18940 FILLER_189_554
*18941 FILLER_189_557
*18942 FILLER_189_561
*18943 FILLER_189_564
*18944 FILLER_189_567
*18945 FILLER_189_57
*18946 FILLER_189_570
*18947 FILLER_189_573
*18948 FILLER_189_576
*18949 FILLER_189_579
*18950 FILLER_189_582
*18951 FILLER_189_585
*18952 FILLER_189_589
*18953 FILLER_189_592
*18954 FILLER_189_595
*18955 FILLER_189_598
*18956 FILLER_189_6
*18957 FILLER_189_60
*18958 FILLER_189_601
*18959 FILLER_189_604
*18960 FILLER_189_607
*18961 FILLER_189_610
*18962 FILLER_189_613
*18963 FILLER_189_617
*18964 FILLER_189_620
*18965 FILLER_189_623
*18966 FILLER_189_626
*18967 FILLER_189_629
*18968 FILLER_189_63
*18969 FILLER_189_632
*18970 FILLER_189_635
*18971 FILLER_189_638
*18972 FILLER_189_641
*18973 FILLER_189_645
*18974 FILLER_189_648
*18975 FILLER_189_651
*18976 FILLER_189_654
*18977 FILLER_189_657
*18978 FILLER_189_66
*18979 FILLER_189_660
*18980 FILLER_189_663
*18981 FILLER_189_666
*18982 FILLER_189_669
*18983 FILLER_189_673
*18984 FILLER_189_676
*18985 FILLER_189_679
*18986 FILLER_189_682
*18987 FILLER_189_685
*18988 FILLER_189_688
*18989 FILLER_189_69
*18990 FILLER_189_691
*18991 FILLER_189_694
*18992 FILLER_189_697
*18993 FILLER_189_701
*18994 FILLER_189_704
*18995 FILLER_189_707
*18996 FILLER_189_710
*18997 FILLER_189_713
*18998 FILLER_189_716
*18999 FILLER_189_719
*19000 FILLER_189_72
*19001 FILLER_189_722
*19002 FILLER_189_725
*19003 FILLER_189_729
*19004 FILLER_189_732
*19005 FILLER_189_735
*19006 FILLER_189_738
*19007 FILLER_189_741
*19008 FILLER_189_744
*19009 FILLER_189_747
*19010 FILLER_189_75
*19011 FILLER_189_750
*19012 FILLER_189_753
*19013 FILLER_189_757
*19014 FILLER_189_760
*19015 FILLER_189_763
*19016 FILLER_189_766
*19017 FILLER_189_769
*19018 FILLER_189_772
*19019 FILLER_189_775
*19020 FILLER_189_778
*19021 FILLER_189_78
*19022 FILLER_189_781
*19023 FILLER_189_785
*19024 FILLER_189_788
*19025 FILLER_189_791
*19026 FILLER_189_794
*19027 FILLER_189_797
*19028 FILLER_189_800
*19029 FILLER_189_803
*19030 FILLER_189_806
*19031 FILLER_189_809
*19032 FILLER_189_81
*19033 FILLER_189_813
*19034 FILLER_189_816
*19035 FILLER_189_819
*19036 FILLER_189_822
*19037 FILLER_189_825
*19038 FILLER_189_828
*19039 FILLER_189_831
*19040 FILLER_189_834
*19041 FILLER_189_837
*19042 FILLER_189_841
*19043 FILLER_189_844
*19044 FILLER_189_847
*19045 FILLER_189_85
*19046 FILLER_189_850
*19047 FILLER_189_853
*19048 FILLER_189_856
*19049 FILLER_189_859
*19050 FILLER_189_862
*19051 FILLER_189_865
*19052 FILLER_189_869
*19053 FILLER_189_872
*19054 FILLER_189_875
*19055 FILLER_189_878
*19056 FILLER_189_88
*19057 FILLER_189_881
*19058 FILLER_189_884
*19059 FILLER_189_887
*19060 FILLER_189_890
*19061 FILLER_189_893
*19062 FILLER_189_897
*19063 FILLER_189_9
*19064 FILLER_189_900
*19065 FILLER_189_903
*19066 FILLER_189_906
*19067 FILLER_189_909
*19068 FILLER_189_91
*19069 FILLER_189_912
*19070 FILLER_189_915
*19071 FILLER_189_918
*19072 FILLER_189_921
*19073 FILLER_189_925
*19074 FILLER_189_928
*19075 FILLER_189_931
*19076 FILLER_189_934
*19077 FILLER_189_937
*19078 FILLER_189_94
*19079 FILLER_189_940
*19080 FILLER_189_943
*19081 FILLER_189_946
*19082 FILLER_189_949
*19083 FILLER_189_953
*19084 FILLER_189_956
*19085 FILLER_189_959
*19086 FILLER_189_962
*19087 FILLER_189_965
*19088 FILLER_189_968
*19089 FILLER_189_97
*19090 FILLER_189_971
*19091 FILLER_189_974
*19092 FILLER_189_977
*19093 FILLER_189_981
*19094 FILLER_189_984
*19095 FILLER_189_987
*19096 FILLER_189_990
*19097 FILLER_189_993
*19098 FILLER_189_996
*19099 FILLER_189_999
*19100 FILLER_18_100
*19101 FILLER_18_103
*19102 FILLER_18_106
*19103 FILLER_18_109
*19104 FILLER_18_112
*19105 FILLER_18_12
*19106 FILLER_18_1208
*19107 FILLER_18_1211
*19108 FILLER_18_1214
*19109 FILLER_18_1217
*19110 FILLER_18_1220
*19111 FILLER_18_1223
*19112 FILLER_18_1226
*19113 FILLER_18_1229
*19114 FILLER_18_1232
*19115 FILLER_18_1234
*19116 FILLER_18_1237
*19117 FILLER_18_1240
*19118 FILLER_18_1243
*19119 FILLER_18_1246
*19120 FILLER_18_1249
*19121 FILLER_18_1252
*19122 FILLER_18_1255
*19123 FILLER_18_1258
*19124 FILLER_18_1261
*19125 FILLER_18_1264
*19126 FILLER_18_1267
*19127 FILLER_18_1270
*19128 FILLER_18_1273
*19129 FILLER_18_1276
*19130 FILLER_18_1279
*19131 FILLER_18_1282
*19132 FILLER_18_1285
*19133 FILLER_18_1288
*19134 FILLER_18_1290
*19135 FILLER_18_1293
*19136 FILLER_18_1296
*19137 FILLER_18_1299
*19138 FILLER_18_1302
*19139 FILLER_18_1305
*19140 FILLER_18_1308
*19141 FILLER_18_1311
*19142 FILLER_18_1314
*19143 FILLER_18_1317
*19144 FILLER_18_1320
*19145 FILLER_18_1323
*19146 FILLER_18_1326
*19147 FILLER_18_1329
*19148 FILLER_18_1332
*19149 FILLER_18_1335
*19150 FILLER_18_1338
*19151 FILLER_18_1341
*19152 FILLER_18_1344
*19153 FILLER_18_1346
*19154 FILLER_18_1349
*19155 FILLER_18_1352
*19156 FILLER_18_1355
*19157 FILLER_18_1358
*19158 FILLER_18_1361
*19159 FILLER_18_15
*19160 FILLER_18_18
*19161 FILLER_18_21
*19162 FILLER_18_24
*19163 FILLER_18_27
*19164 FILLER_18_29
*19165 FILLER_18_3
*19166 FILLER_18_32
*19167 FILLER_18_35
*19168 FILLER_18_38
*19169 FILLER_18_41
*19170 FILLER_18_44
*19171 FILLER_18_47
*19172 FILLER_18_50
*19173 FILLER_18_53
*19174 FILLER_18_56
*19175 FILLER_18_59
*19176 FILLER_18_6
*19177 FILLER_18_62
*19178 FILLER_18_65
*19179 FILLER_18_68
*19180 FILLER_18_71
*19181 FILLER_18_74
*19182 FILLER_18_77
*19183 FILLER_18_80
*19184 FILLER_18_83
*19185 FILLER_18_85
*19186 FILLER_18_88
*19187 FILLER_18_9
*19188 FILLER_18_91
*19189 FILLER_18_94
*19190 FILLER_18_97
*19191 FILLER_19_102
*19192 FILLER_19_105
*19193 FILLER_19_108
*19194 FILLER_19_111
*19195 FILLER_19_113
*19196 FILLER_19_12
*19197 FILLER_19_1208
*19198 FILLER_19_1211
*19199 FILLER_19_1214
*19200 FILLER_19_1217
*19201 FILLER_19_1220
*19202 FILLER_19_1223
*19203 FILLER_19_1226
*19204 FILLER_19_1229
*19205 FILLER_19_1232
*19206 FILLER_19_1235
*19207 FILLER_19_1238
*19208 FILLER_19_1241
*19209 FILLER_19_1244
*19210 FILLER_19_1247
*19211 FILLER_19_1250
*19212 FILLER_19_1253
*19213 FILLER_19_1256
*19214 FILLER_19_1259
*19215 FILLER_19_1262
*19216 FILLER_19_1265
*19217 FILLER_19_1268
*19218 FILLER_19_1271
*19219 FILLER_19_1274
*19220 FILLER_19_1277
*19221 FILLER_19_1280
*19222 FILLER_19_1283
*19223 FILLER_19_1286
*19224 FILLER_19_1289
*19225 FILLER_19_1292
*19226 FILLER_19_1295
*19227 FILLER_19_1298
*19228 FILLER_19_1301
*19229 FILLER_19_1304
*19230 FILLER_19_1307
*19231 FILLER_19_1310
*19232 FILLER_19_1313
*19233 FILLER_19_1316
*19234 FILLER_19_1318
*19235 FILLER_19_1321
*19236 FILLER_19_1324
*19237 FILLER_19_1327
*19238 FILLER_19_1330
*19239 FILLER_19_1333
*19240 FILLER_19_1336
*19241 FILLER_19_1339
*19242 FILLER_19_1342
*19243 FILLER_19_1345
*19244 FILLER_19_1348
*19245 FILLER_19_1351
*19246 FILLER_19_1354
*19247 FILLER_19_1357
*19248 FILLER_19_1360
*19249 FILLER_19_1363
*19250 FILLER_19_15
*19251 FILLER_19_18
*19252 FILLER_19_21
*19253 FILLER_19_24
*19254 FILLER_19_27
*19255 FILLER_19_3
*19256 FILLER_19_30
*19257 FILLER_19_33
*19258 FILLER_19_36
*19259 FILLER_19_39
*19260 FILLER_19_42
*19261 FILLER_19_45
*19262 FILLER_19_48
*19263 FILLER_19_51
*19264 FILLER_19_54
*19265 FILLER_19_57
*19266 FILLER_19_6
*19267 FILLER_19_60
*19268 FILLER_19_63
*19269 FILLER_19_66
*19270 FILLER_19_69
*19271 FILLER_19_72
*19272 FILLER_19_75
*19273 FILLER_19_78
*19274 FILLER_19_81
*19275 FILLER_19_84
*19276 FILLER_19_87
*19277 FILLER_19_9
*19278 FILLER_19_90
*19279 FILLER_19_93
*19280 FILLER_19_96
*19281 FILLER_19_99
*19282 FILLER_1_1001
*19283 FILLER_1_1004
*19284 FILLER_1_1007
*19285 FILLER_1_1009
*19286 FILLER_1_1012
*19287 FILLER_1_1015
*19288 FILLER_1_1018
*19289 FILLER_1_102
*19290 FILLER_1_1021
*19291 FILLER_1_1024
*19292 FILLER_1_1027
*19293 FILLER_1_1030
*19294 FILLER_1_1033
*19295 FILLER_1_1036
*19296 FILLER_1_1039
*19297 FILLER_1_1042
*19298 FILLER_1_1045
*19299 FILLER_1_1048
*19300 FILLER_1_105
*19301 FILLER_1_1051
*19302 FILLER_1_1054
*19303 FILLER_1_1057
*19304 FILLER_1_1060
*19305 FILLER_1_1063
*19306 FILLER_1_1065
*19307 FILLER_1_1068
*19308 FILLER_1_1071
*19309 FILLER_1_1074
*19310 FILLER_1_1077
*19311 FILLER_1_108
*19312 FILLER_1_1080
*19313 FILLER_1_1083
*19314 FILLER_1_1086
*19315 FILLER_1_1089
*19316 FILLER_1_1092
*19317 FILLER_1_1095
*19318 FILLER_1_1098
*19319 FILLER_1_1101
*19320 FILLER_1_1104
*19321 FILLER_1_1107
*19322 FILLER_1_111
*19323 FILLER_1_1110
*19324 FILLER_1_1113
*19325 FILLER_1_1116
*19326 FILLER_1_1119
*19327 FILLER_1_1121
*19328 FILLER_1_1124
*19329 FILLER_1_1127
*19330 FILLER_1_113
*19331 FILLER_1_1130
*19332 FILLER_1_1133
*19333 FILLER_1_1136
*19334 FILLER_1_1139
*19335 FILLER_1_1142
*19336 FILLER_1_1145
*19337 FILLER_1_1148
*19338 FILLER_1_1151
*19339 FILLER_1_1154
*19340 FILLER_1_1157
*19341 FILLER_1_116
*19342 FILLER_1_1160
*19343 FILLER_1_1163
*19344 FILLER_1_1166
*19345 FILLER_1_1169
*19346 FILLER_1_1172
*19347 FILLER_1_1175
*19348 FILLER_1_1177
*19349 FILLER_1_1180
*19350 FILLER_1_1183
*19351 FILLER_1_1186
*19352 FILLER_1_1189
*19353 FILLER_1_119
*19354 FILLER_1_1192
*19355 FILLER_1_1195
*19356 FILLER_1_1198
*19357 FILLER_1_12
*19358 FILLER_1_1201
*19359 FILLER_1_1204
*19360 FILLER_1_1207
*19361 FILLER_1_1210
*19362 FILLER_1_1213
*19363 FILLER_1_1216
*19364 FILLER_1_1219
*19365 FILLER_1_122
*19366 FILLER_1_1222
*19367 FILLER_1_1225
*19368 FILLER_1_1228
*19369 FILLER_1_1231
*19370 FILLER_1_1233
*19371 FILLER_1_1236
*19372 FILLER_1_1239
*19373 FILLER_1_1242
*19374 FILLER_1_1245
*19375 FILLER_1_1248
*19376 FILLER_1_125
*19377 FILLER_1_1251
*19378 FILLER_1_1254
*19379 FILLER_1_1257
*19380 FILLER_1_1260
*19381 FILLER_1_1263
*19382 FILLER_1_1266
*19383 FILLER_1_1269
*19384 FILLER_1_1272
*19385 FILLER_1_1275
*19386 FILLER_1_1278
*19387 FILLER_1_128
*19388 FILLER_1_1281
*19389 FILLER_1_1284
*19390 FILLER_1_1287
*19391 FILLER_1_1289
*19392 FILLER_1_1292
*19393 FILLER_1_1295
*19394 FILLER_1_1298
*19395 FILLER_1_1301
*19396 FILLER_1_1304
*19397 FILLER_1_1307
*19398 FILLER_1_131
*19399 FILLER_1_1310
*19400 FILLER_1_1313
*19401 FILLER_1_1316
*19402 FILLER_1_1319
*19403 FILLER_1_1322
*19404 FILLER_1_1325
*19405 FILLER_1_1328
*19406 FILLER_1_1331
*19407 FILLER_1_1334
*19408 FILLER_1_1337
*19409 FILLER_1_134
*19410 FILLER_1_1340
*19411 FILLER_1_1343
*19412 FILLER_1_1345
*19413 FILLER_1_1348
*19414 FILLER_1_1351
*19415 FILLER_1_1354
*19416 FILLER_1_1357
*19417 FILLER_1_1360
*19418 FILLER_1_1363
*19419 FILLER_1_137
*19420 FILLER_1_140
*19421 FILLER_1_143
*19422 FILLER_1_146
*19423 FILLER_1_149
*19424 FILLER_1_15
*19425 FILLER_1_152
*19426 FILLER_1_155
*19427 FILLER_1_158
*19428 FILLER_1_161
*19429 FILLER_1_164
*19430 FILLER_1_167
*19431 FILLER_1_169
*19432 FILLER_1_172
*19433 FILLER_1_175
*19434 FILLER_1_178
*19435 FILLER_1_18
*19436 FILLER_1_181
*19437 FILLER_1_184
*19438 FILLER_1_187
*19439 FILLER_1_190
*19440 FILLER_1_193
*19441 FILLER_1_196
*19442 FILLER_1_199
*19443 FILLER_1_202
*19444 FILLER_1_205
*19445 FILLER_1_208
*19446 FILLER_1_21
*19447 FILLER_1_211
*19448 FILLER_1_214
*19449 FILLER_1_217
*19450 FILLER_1_220
*19451 FILLER_1_223
*19452 FILLER_1_225
*19453 FILLER_1_228
*19454 FILLER_1_231
*19455 FILLER_1_234
*19456 FILLER_1_237
*19457 FILLER_1_24
*19458 FILLER_1_240
*19459 FILLER_1_243
*19460 FILLER_1_246
*19461 FILLER_1_249
*19462 FILLER_1_252
*19463 FILLER_1_255
*19464 FILLER_1_258
*19465 FILLER_1_261
*19466 FILLER_1_264
*19467 FILLER_1_267
*19468 FILLER_1_27
*19469 FILLER_1_270
*19470 FILLER_1_273
*19471 FILLER_1_276
*19472 FILLER_1_279
*19473 FILLER_1_281
*19474 FILLER_1_284
*19475 FILLER_1_287
*19476 FILLER_1_290
*19477 FILLER_1_293
*19478 FILLER_1_296
*19479 FILLER_1_299
*19480 FILLER_1_3
*19481 FILLER_1_30
*19482 FILLER_1_302
*19483 FILLER_1_305
*19484 FILLER_1_308
*19485 FILLER_1_311
*19486 FILLER_1_314
*19487 FILLER_1_317
*19488 FILLER_1_320
*19489 FILLER_1_323
*19490 FILLER_1_326
*19491 FILLER_1_329
*19492 FILLER_1_33
*19493 FILLER_1_332
*19494 FILLER_1_335
*19495 FILLER_1_337
*19496 FILLER_1_340
*19497 FILLER_1_343
*19498 FILLER_1_346
*19499 FILLER_1_349
*19500 FILLER_1_352
*19501 FILLER_1_355
*19502 FILLER_1_358
*19503 FILLER_1_36
*19504 FILLER_1_361
*19505 FILLER_1_364
*19506 FILLER_1_367
*19507 FILLER_1_370
*19508 FILLER_1_373
*19509 FILLER_1_376
*19510 FILLER_1_379
*19511 FILLER_1_382
*19512 FILLER_1_385
*19513 FILLER_1_388
*19514 FILLER_1_39
*19515 FILLER_1_391
*19516 FILLER_1_393
*19517 FILLER_1_396
*19518 FILLER_1_399
*19519 FILLER_1_402
*19520 FILLER_1_405
*19521 FILLER_1_408
*19522 FILLER_1_411
*19523 FILLER_1_414
*19524 FILLER_1_417
*19525 FILLER_1_42
*19526 FILLER_1_420
*19527 FILLER_1_423
*19528 FILLER_1_426
*19529 FILLER_1_429
*19530 FILLER_1_432
*19531 FILLER_1_435
*19532 FILLER_1_438
*19533 FILLER_1_441
*19534 FILLER_1_444
*19535 FILLER_1_447
*19536 FILLER_1_449
*19537 FILLER_1_45
*19538 FILLER_1_452
*19539 FILLER_1_455
*19540 FILLER_1_458
*19541 FILLER_1_461
*19542 FILLER_1_464
*19543 FILLER_1_467
*19544 FILLER_1_470
*19545 FILLER_1_473
*19546 FILLER_1_476
*19547 FILLER_1_479
*19548 FILLER_1_48
*19549 FILLER_1_482
*19550 FILLER_1_485
*19551 FILLER_1_488
*19552 FILLER_1_491
*19553 FILLER_1_494
*19554 FILLER_1_497
*19555 FILLER_1_500
*19556 FILLER_1_503
*19557 FILLER_1_505
*19558 FILLER_1_508
*19559 FILLER_1_51
*19560 FILLER_1_511
*19561 FILLER_1_514
*19562 FILLER_1_517
*19563 FILLER_1_520
*19564 FILLER_1_523
*19565 FILLER_1_526
*19566 FILLER_1_529
*19567 FILLER_1_532
*19568 FILLER_1_535
*19569 FILLER_1_538
*19570 FILLER_1_54
*19571 FILLER_1_541
*19572 FILLER_1_544
*19573 FILLER_1_547
*19574 FILLER_1_550
*19575 FILLER_1_553
*19576 FILLER_1_556
*19577 FILLER_1_559
*19578 FILLER_1_561
*19579 FILLER_1_564
*19580 FILLER_1_567
*19581 FILLER_1_57
*19582 FILLER_1_570
*19583 FILLER_1_573
*19584 FILLER_1_576
*19585 FILLER_1_579
*19586 FILLER_1_582
*19587 FILLER_1_585
*19588 FILLER_1_588
*19589 FILLER_1_591
*19590 FILLER_1_594
*19591 FILLER_1_597
*19592 FILLER_1_6
*19593 FILLER_1_60
*19594 FILLER_1_600
*19595 FILLER_1_603
*19596 FILLER_1_606
*19597 FILLER_1_609
*19598 FILLER_1_612
*19599 FILLER_1_615
*19600 FILLER_1_617
*19601 FILLER_1_620
*19602 FILLER_1_623
*19603 FILLER_1_626
*19604 FILLER_1_629
*19605 FILLER_1_63
*19606 FILLER_1_632
*19607 FILLER_1_635
*19608 FILLER_1_638
*19609 FILLER_1_641
*19610 FILLER_1_644
*19611 FILLER_1_647
*19612 FILLER_1_650
*19613 FILLER_1_653
*19614 FILLER_1_656
*19615 FILLER_1_659
*19616 FILLER_1_66
*19617 FILLER_1_662
*19618 FILLER_1_665
*19619 FILLER_1_668
*19620 FILLER_1_671
*19621 FILLER_1_673
*19622 FILLER_1_676
*19623 FILLER_1_679
*19624 FILLER_1_682
*19625 FILLER_1_685
*19626 FILLER_1_688
*19627 FILLER_1_69
*19628 FILLER_1_691
*19629 FILLER_1_694
*19630 FILLER_1_697
*19631 FILLER_1_700
*19632 FILLER_1_703
*19633 FILLER_1_706
*19634 FILLER_1_709
*19635 FILLER_1_712
*19636 FILLER_1_715
*19637 FILLER_1_718
*19638 FILLER_1_72
*19639 FILLER_1_721
*19640 FILLER_1_724
*19641 FILLER_1_727
*19642 FILLER_1_729
*19643 FILLER_1_732
*19644 FILLER_1_735
*19645 FILLER_1_738
*19646 FILLER_1_741
*19647 FILLER_1_744
*19648 FILLER_1_747
*19649 FILLER_1_75
*19650 FILLER_1_750
*19651 FILLER_1_753
*19652 FILLER_1_756
*19653 FILLER_1_759
*19654 FILLER_1_762
*19655 FILLER_1_765
*19656 FILLER_1_768
*19657 FILLER_1_771
*19658 FILLER_1_774
*19659 FILLER_1_777
*19660 FILLER_1_78
*19661 FILLER_1_780
*19662 FILLER_1_783
*19663 FILLER_1_785
*19664 FILLER_1_788
*19665 FILLER_1_791
*19666 FILLER_1_794
*19667 FILLER_1_797
*19668 FILLER_1_800
*19669 FILLER_1_803
*19670 FILLER_1_806
*19671 FILLER_1_809
*19672 FILLER_1_81
*19673 FILLER_1_812
*19674 FILLER_1_815
*19675 FILLER_1_818
*19676 FILLER_1_821
*19677 FILLER_1_824
*19678 FILLER_1_827
*19679 FILLER_1_830
*19680 FILLER_1_833
*19681 FILLER_1_836
*19682 FILLER_1_839
*19683 FILLER_1_84
*19684 FILLER_1_841
*19685 FILLER_1_844
*19686 FILLER_1_847
*19687 FILLER_1_850
*19688 FILLER_1_853
*19689 FILLER_1_856
*19690 FILLER_1_859
*19691 FILLER_1_862
*19692 FILLER_1_865
*19693 FILLER_1_868
*19694 FILLER_1_87
*19695 FILLER_1_871
*19696 FILLER_1_874
*19697 FILLER_1_877
*19698 FILLER_1_880
*19699 FILLER_1_883
*19700 FILLER_1_886
*19701 FILLER_1_889
*19702 FILLER_1_892
*19703 FILLER_1_895
*19704 FILLER_1_897
*19705 FILLER_1_9
*19706 FILLER_1_90
*19707 FILLER_1_900
*19708 FILLER_1_903
*19709 FILLER_1_906
*19710 FILLER_1_909
*19711 FILLER_1_912
*19712 FILLER_1_915
*19713 FILLER_1_918
*19714 FILLER_1_921
*19715 FILLER_1_924
*19716 FILLER_1_927
*19717 FILLER_1_93
*19718 FILLER_1_930
*19719 FILLER_1_933
*19720 FILLER_1_936
*19721 FILLER_1_939
*19722 FILLER_1_942
*19723 FILLER_1_945
*19724 FILLER_1_948
*19725 FILLER_1_951
*19726 FILLER_1_953
*19727 FILLER_1_956
*19728 FILLER_1_959
*19729 FILLER_1_96
*19730 FILLER_1_962
*19731 FILLER_1_965
*19732 FILLER_1_968
*19733 FILLER_1_971
*19734 FILLER_1_974
*19735 FILLER_1_977
*19736 FILLER_1_980
*19737 FILLER_1_983
*19738 FILLER_1_986
*19739 FILLER_1_989
*19740 FILLER_1_99
*19741 FILLER_1_992
*19742 FILLER_1_995
*19743 FILLER_1_998
*19744 FILLER_20_100
*19745 FILLER_20_103
*19746 FILLER_20_106
*19747 FILLER_20_109
*19748 FILLER_20_112
*19749 FILLER_20_12
*19750 FILLER_20_1208
*19751 FILLER_20_1211
*19752 FILLER_20_1214
*19753 FILLER_20_1217
*19754 FILLER_20_1220
*19755 FILLER_20_1223
*19756 FILLER_20_1226
*19757 FILLER_20_1229
*19758 FILLER_20_1232
*19759 FILLER_20_1234
*19760 FILLER_20_1237
*19761 FILLER_20_1240
*19762 FILLER_20_1243
*19763 FILLER_20_1246
*19764 FILLER_20_1249
*19765 FILLER_20_1252
*19766 FILLER_20_1255
*19767 FILLER_20_1258
*19768 FILLER_20_1261
*19769 FILLER_20_1264
*19770 FILLER_20_1267
*19771 FILLER_20_1270
*19772 FILLER_20_1273
*19773 FILLER_20_1276
*19774 FILLER_20_1279
*19775 FILLER_20_1282
*19776 FILLER_20_1285
*19777 FILLER_20_1288
*19778 FILLER_20_1290
*19779 FILLER_20_1293
*19780 FILLER_20_1296
*19781 FILLER_20_1299
*19782 FILLER_20_1302
*19783 FILLER_20_1305
*19784 FILLER_20_1308
*19785 FILLER_20_1311
*19786 FILLER_20_1314
*19787 FILLER_20_1317
*19788 FILLER_20_1320
*19789 FILLER_20_1323
*19790 FILLER_20_1326
*19791 FILLER_20_1329
*19792 FILLER_20_1332
*19793 FILLER_20_1335
*19794 FILLER_20_1338
*19795 FILLER_20_1341
*19796 FILLER_20_1344
*19797 FILLER_20_1346
*19798 FILLER_20_1349
*19799 FILLER_20_1352
*19800 FILLER_20_1355
*19801 FILLER_20_1358
*19802 FILLER_20_1361
*19803 FILLER_20_15
*19804 FILLER_20_18
*19805 FILLER_20_21
*19806 FILLER_20_24
*19807 FILLER_20_27
*19808 FILLER_20_29
*19809 FILLER_20_3
*19810 FILLER_20_32
*19811 FILLER_20_35
*19812 FILLER_20_38
*19813 FILLER_20_41
*19814 FILLER_20_44
*19815 FILLER_20_47
*19816 FILLER_20_50
*19817 FILLER_20_53
*19818 FILLER_20_56
*19819 FILLER_20_59
*19820 FILLER_20_6
*19821 FILLER_20_62
*19822 FILLER_20_65
*19823 FILLER_20_68
*19824 FILLER_20_71
*19825 FILLER_20_74
*19826 FILLER_20_77
*19827 FILLER_20_80
*19828 FILLER_20_83
*19829 FILLER_20_85
*19830 FILLER_20_88
*19831 FILLER_20_9
*19832 FILLER_20_91
*19833 FILLER_20_94
*19834 FILLER_20_97
*19835 FILLER_21_102
*19836 FILLER_21_105
*19837 FILLER_21_108
*19838 FILLER_21_111
*19839 FILLER_21_113
*19840 FILLER_21_12
*19841 FILLER_21_1208
*19842 FILLER_21_1211
*19843 FILLER_21_1214
*19844 FILLER_21_1217
*19845 FILLER_21_1220
*19846 FILLER_21_1223
*19847 FILLER_21_1226
*19848 FILLER_21_1229
*19849 FILLER_21_1232
*19850 FILLER_21_1235
*19851 FILLER_21_1238
*19852 FILLER_21_1241
*19853 FILLER_21_1244
*19854 FILLER_21_1247
*19855 FILLER_21_1250
*19856 FILLER_21_1253
*19857 FILLER_21_1256
*19858 FILLER_21_1259
*19859 FILLER_21_1262
*19860 FILLER_21_1265
*19861 FILLER_21_1268
*19862 FILLER_21_1271
*19863 FILLER_21_1274
*19864 FILLER_21_1277
*19865 FILLER_21_1280
*19866 FILLER_21_1283
*19867 FILLER_21_1286
*19868 FILLER_21_1289
*19869 FILLER_21_1292
*19870 FILLER_21_1295
*19871 FILLER_21_1298
*19872 FILLER_21_1301
*19873 FILLER_21_1304
*19874 FILLER_21_1307
*19875 FILLER_21_1310
*19876 FILLER_21_1313
*19877 FILLER_21_1316
*19878 FILLER_21_1318
*19879 FILLER_21_1321
*19880 FILLER_21_1324
*19881 FILLER_21_1327
*19882 FILLER_21_1330
*19883 FILLER_21_1333
*19884 FILLER_21_1336
*19885 FILLER_21_1339
*19886 FILLER_21_1342
*19887 FILLER_21_1345
*19888 FILLER_21_1348
*19889 FILLER_21_1351
*19890 FILLER_21_1354
*19891 FILLER_21_1357
*19892 FILLER_21_1360
*19893 FILLER_21_1363
*19894 FILLER_21_15
*19895 FILLER_21_18
*19896 FILLER_21_21
*19897 FILLER_21_24
*19898 FILLER_21_27
*19899 FILLER_21_3
*19900 FILLER_21_30
*19901 FILLER_21_33
*19902 FILLER_21_36
*19903 FILLER_21_39
*19904 FILLER_21_42
*19905 FILLER_21_45
*19906 FILLER_21_48
*19907 FILLER_21_51
*19908 FILLER_21_54
*19909 FILLER_21_57
*19910 FILLER_21_6
*19911 FILLER_21_60
*19912 FILLER_21_63
*19913 FILLER_21_66
*19914 FILLER_21_69
*19915 FILLER_21_72
*19916 FILLER_21_75
*19917 FILLER_21_78
*19918 FILLER_21_81
*19919 FILLER_21_84
*19920 FILLER_21_87
*19921 FILLER_21_9
*19922 FILLER_21_90
*19923 FILLER_21_93
*19924 FILLER_21_96
*19925 FILLER_21_99
*19926 FILLER_22_100
*19927 FILLER_22_103
*19928 FILLER_22_106
*19929 FILLER_22_109
*19930 FILLER_22_112
*19931 FILLER_22_12
*19932 FILLER_22_1208
*19933 FILLER_22_1211
*19934 FILLER_22_1214
*19935 FILLER_22_1217
*19936 FILLER_22_1220
*19937 FILLER_22_1223
*19938 FILLER_22_1226
*19939 FILLER_22_1229
*19940 FILLER_22_1232
*19941 FILLER_22_1234
*19942 FILLER_22_1237
*19943 FILLER_22_1240
*19944 FILLER_22_1243
*19945 FILLER_22_1246
*19946 FILLER_22_1249
*19947 FILLER_22_1252
*19948 FILLER_22_1255
*19949 FILLER_22_1258
*19950 FILLER_22_1261
*19951 FILLER_22_1264
*19952 FILLER_22_1267
*19953 FILLER_22_1270
*19954 FILLER_22_1273
*19955 FILLER_22_1276
*19956 FILLER_22_1279
*19957 FILLER_22_1282
*19958 FILLER_22_1285
*19959 FILLER_22_1288
*19960 FILLER_22_1290
*19961 FILLER_22_1293
*19962 FILLER_22_1296
*19963 FILLER_22_1299
*19964 FILLER_22_1302
*19965 FILLER_22_1305
*19966 FILLER_22_1308
*19967 FILLER_22_1311
*19968 FILLER_22_1314
*19969 FILLER_22_1317
*19970 FILLER_22_1320
*19971 FILLER_22_1323
*19972 FILLER_22_1326
*19973 FILLER_22_1329
*19974 FILLER_22_1332
*19975 FILLER_22_1335
*19976 FILLER_22_1338
*19977 FILLER_22_1341
*19978 FILLER_22_1344
*19979 FILLER_22_1346
*19980 FILLER_22_1349
*19981 FILLER_22_1352
*19982 FILLER_22_1355
*19983 FILLER_22_1358
*19984 FILLER_22_1361
*19985 FILLER_22_15
*19986 FILLER_22_18
*19987 FILLER_22_21
*19988 FILLER_22_24
*19989 FILLER_22_27
*19990 FILLER_22_29
*19991 FILLER_22_3
*19992 FILLER_22_32
*19993 FILLER_22_35
*19994 FILLER_22_38
*19995 FILLER_22_41
*19996 FILLER_22_44
*19997 FILLER_22_47
*19998 FILLER_22_50
*19999 FILLER_22_53
*20000 FILLER_22_56
*20001 FILLER_22_59
*20002 FILLER_22_6
*20003 FILLER_22_62
*20004 FILLER_22_65
*20005 FILLER_22_68
*20006 FILLER_22_71
*20007 FILLER_22_74
*20008 FILLER_22_77
*20009 FILLER_22_80
*20010 FILLER_22_83
*20011 FILLER_22_85
*20012 FILLER_22_88
*20013 FILLER_22_9
*20014 FILLER_22_91
*20015 FILLER_22_94
*20016 FILLER_22_97
*20017 FILLER_23_102
*20018 FILLER_23_105
*20019 FILLER_23_108
*20020 FILLER_23_111
*20021 FILLER_23_113
*20022 FILLER_23_12
*20023 FILLER_23_1208
*20024 FILLER_23_1211
*20025 FILLER_23_1214
*20026 FILLER_23_1217
*20027 FILLER_23_1220
*20028 FILLER_23_1223
*20029 FILLER_23_1226
*20030 FILLER_23_1229
*20031 FILLER_23_1232
*20032 FILLER_23_1235
*20033 FILLER_23_1238
*20034 FILLER_23_1241
*20035 FILLER_23_1244
*20036 FILLER_23_1247
*20037 FILLER_23_1250
*20038 FILLER_23_1253
*20039 FILLER_23_1256
*20040 FILLER_23_1259
*20041 FILLER_23_1262
*20042 FILLER_23_1265
*20043 FILLER_23_1268
*20044 FILLER_23_1271
*20045 FILLER_23_1274
*20046 FILLER_23_1277
*20047 FILLER_23_1280
*20048 FILLER_23_1283
*20049 FILLER_23_1286
*20050 FILLER_23_1289
*20051 FILLER_23_1292
*20052 FILLER_23_1295
*20053 FILLER_23_1298
*20054 FILLER_23_1301
*20055 FILLER_23_1304
*20056 FILLER_23_1307
*20057 FILLER_23_1310
*20058 FILLER_23_1313
*20059 FILLER_23_1316
*20060 FILLER_23_1318
*20061 FILLER_23_1321
*20062 FILLER_23_1324
*20063 FILLER_23_1327
*20064 FILLER_23_1330
*20065 FILLER_23_1333
*20066 FILLER_23_1336
*20067 FILLER_23_1339
*20068 FILLER_23_1342
*20069 FILLER_23_1345
*20070 FILLER_23_1348
*20071 FILLER_23_1351
*20072 FILLER_23_1354
*20073 FILLER_23_1357
*20074 FILLER_23_1360
*20075 FILLER_23_1363
*20076 FILLER_23_15
*20077 FILLER_23_18
*20078 FILLER_23_21
*20079 FILLER_23_24
*20080 FILLER_23_27
*20081 FILLER_23_3
*20082 FILLER_23_30
*20083 FILLER_23_33
*20084 FILLER_23_36
*20085 FILLER_23_39
*20086 FILLER_23_42
*20087 FILLER_23_45
*20088 FILLER_23_48
*20089 FILLER_23_51
*20090 FILLER_23_54
*20091 FILLER_23_57
*20092 FILLER_23_6
*20093 FILLER_23_60
*20094 FILLER_23_63
*20095 FILLER_23_66
*20096 FILLER_23_69
*20097 FILLER_23_72
*20098 FILLER_23_75
*20099 FILLER_23_78
*20100 FILLER_23_81
*20101 FILLER_23_84
*20102 FILLER_23_87
*20103 FILLER_23_9
*20104 FILLER_23_90
*20105 FILLER_23_93
*20106 FILLER_23_96
*20107 FILLER_23_99
*20108 FILLER_24_100
*20109 FILLER_24_103
*20110 FILLER_24_106
*20111 FILLER_24_109
*20112 FILLER_24_112
*20113 FILLER_24_12
*20114 FILLER_24_1208
*20115 FILLER_24_1211
*20116 FILLER_24_1214
*20117 FILLER_24_1217
*20118 FILLER_24_1220
*20119 FILLER_24_1223
*20120 FILLER_24_1226
*20121 FILLER_24_1229
*20122 FILLER_24_1232
*20123 FILLER_24_1234
*20124 FILLER_24_1237
*20125 FILLER_24_1240
*20126 FILLER_24_1243
*20127 FILLER_24_1246
*20128 FILLER_24_1249
*20129 FILLER_24_1252
*20130 FILLER_24_1255
*20131 FILLER_24_1258
*20132 FILLER_24_1261
*20133 FILLER_24_1264
*20134 FILLER_24_1267
*20135 FILLER_24_1270
*20136 FILLER_24_1273
*20137 FILLER_24_1276
*20138 FILLER_24_1279
*20139 FILLER_24_1282
*20140 FILLER_24_1285
*20141 FILLER_24_1288
*20142 FILLER_24_1290
*20143 FILLER_24_1293
*20144 FILLER_24_1296
*20145 FILLER_24_1299
*20146 FILLER_24_1302
*20147 FILLER_24_1305
*20148 FILLER_24_1308
*20149 FILLER_24_1311
*20150 FILLER_24_1314
*20151 FILLER_24_1317
*20152 FILLER_24_1320
*20153 FILLER_24_1323
*20154 FILLER_24_1326
*20155 FILLER_24_1329
*20156 FILLER_24_1332
*20157 FILLER_24_1335
*20158 FILLER_24_1338
*20159 FILLER_24_1341
*20160 FILLER_24_1344
*20161 FILLER_24_1346
*20162 FILLER_24_1349
*20163 FILLER_24_1352
*20164 FILLER_24_1355
*20165 FILLER_24_1358
*20166 FILLER_24_1361
*20167 FILLER_24_15
*20168 FILLER_24_18
*20169 FILLER_24_21
*20170 FILLER_24_24
*20171 FILLER_24_27
*20172 FILLER_24_29
*20173 FILLER_24_3
*20174 FILLER_24_32
*20175 FILLER_24_35
*20176 FILLER_24_38
*20177 FILLER_24_41
*20178 FILLER_24_44
*20179 FILLER_24_47
*20180 FILLER_24_50
*20181 FILLER_24_53
*20182 FILLER_24_56
*20183 FILLER_24_59
*20184 FILLER_24_6
*20185 FILLER_24_62
*20186 FILLER_24_65
*20187 FILLER_24_68
*20188 FILLER_24_71
*20189 FILLER_24_74
*20190 FILLER_24_77
*20191 FILLER_24_80
*20192 FILLER_24_83
*20193 FILLER_24_85
*20194 FILLER_24_88
*20195 FILLER_24_9
*20196 FILLER_24_91
*20197 FILLER_24_94
*20198 FILLER_24_97
*20199 FILLER_25_102
*20200 FILLER_25_105
*20201 FILLER_25_108
*20202 FILLER_25_111
*20203 FILLER_25_113
*20204 FILLER_25_12
*20205 FILLER_25_1208
*20206 FILLER_25_1211
*20207 FILLER_25_1214
*20208 FILLER_25_1217
*20209 FILLER_25_1220
*20210 FILLER_25_1223
*20211 FILLER_25_1226
*20212 FILLER_25_1229
*20213 FILLER_25_1232
*20214 FILLER_25_1235
*20215 FILLER_25_1238
*20216 FILLER_25_1241
*20217 FILLER_25_1244
*20218 FILLER_25_1247
*20219 FILLER_25_1250
*20220 FILLER_25_1253
*20221 FILLER_25_1256
*20222 FILLER_25_1259
*20223 FILLER_25_1262
*20224 FILLER_25_1265
*20225 FILLER_25_1268
*20226 FILLER_25_1271
*20227 FILLER_25_1274
*20228 FILLER_25_1277
*20229 FILLER_25_1280
*20230 FILLER_25_1283
*20231 FILLER_25_1286
*20232 FILLER_25_1289
*20233 FILLER_25_1292
*20234 FILLER_25_1295
*20235 FILLER_25_1298
*20236 FILLER_25_1301
*20237 FILLER_25_1304
*20238 FILLER_25_1307
*20239 FILLER_25_1310
*20240 FILLER_25_1313
*20241 FILLER_25_1316
*20242 FILLER_25_1318
*20243 FILLER_25_1321
*20244 FILLER_25_1324
*20245 FILLER_25_1327
*20246 FILLER_25_1330
*20247 FILLER_25_1333
*20248 FILLER_25_1336
*20249 FILLER_25_1339
*20250 FILLER_25_1342
*20251 FILLER_25_1345
*20252 FILLER_25_1348
*20253 FILLER_25_1351
*20254 FILLER_25_1354
*20255 FILLER_25_1357
*20256 FILLER_25_1360
*20257 FILLER_25_1363
*20258 FILLER_25_15
*20259 FILLER_25_18
*20260 FILLER_25_21
*20261 FILLER_25_24
*20262 FILLER_25_27
*20263 FILLER_25_3
*20264 FILLER_25_30
*20265 FILLER_25_33
*20266 FILLER_25_36
*20267 FILLER_25_39
*20268 FILLER_25_42
*20269 FILLER_25_45
*20270 FILLER_25_48
*20271 FILLER_25_51
*20272 FILLER_25_54
*20273 FILLER_25_57
*20274 FILLER_25_6
*20275 FILLER_25_60
*20276 FILLER_25_63
*20277 FILLER_25_66
*20278 FILLER_25_69
*20279 FILLER_25_72
*20280 FILLER_25_75
*20281 FILLER_25_78
*20282 FILLER_25_81
*20283 FILLER_25_84
*20284 FILLER_25_87
*20285 FILLER_25_9
*20286 FILLER_25_90
*20287 FILLER_25_93
*20288 FILLER_25_96
*20289 FILLER_25_99
*20290 FILLER_26_100
*20291 FILLER_26_103
*20292 FILLER_26_106
*20293 FILLER_26_109
*20294 FILLER_26_112
*20295 FILLER_26_12
*20296 FILLER_26_1208
*20297 FILLER_26_1211
*20298 FILLER_26_1214
*20299 FILLER_26_1217
*20300 FILLER_26_1220
*20301 FILLER_26_1223
*20302 FILLER_26_1226
*20303 FILLER_26_1229
*20304 FILLER_26_1232
*20305 FILLER_26_1234
*20306 FILLER_26_1237
*20307 FILLER_26_1240
*20308 FILLER_26_1243
*20309 FILLER_26_1246
*20310 FILLER_26_1249
*20311 FILLER_26_1252
*20312 FILLER_26_1255
*20313 FILLER_26_1258
*20314 FILLER_26_1261
*20315 FILLER_26_1264
*20316 FILLER_26_1267
*20317 FILLER_26_1270
*20318 FILLER_26_1273
*20319 FILLER_26_1276
*20320 FILLER_26_1279
*20321 FILLER_26_1282
*20322 FILLER_26_1285
*20323 FILLER_26_1288
*20324 FILLER_26_1290
*20325 FILLER_26_1293
*20326 FILLER_26_1296
*20327 FILLER_26_1299
*20328 FILLER_26_1302
*20329 FILLER_26_1305
*20330 FILLER_26_1308
*20331 FILLER_26_1311
*20332 FILLER_26_1314
*20333 FILLER_26_1317
*20334 FILLER_26_1320
*20335 FILLER_26_1323
*20336 FILLER_26_1326
*20337 FILLER_26_1329
*20338 FILLER_26_1332
*20339 FILLER_26_1335
*20340 FILLER_26_1338
*20341 FILLER_26_1341
*20342 FILLER_26_1344
*20343 FILLER_26_1346
*20344 FILLER_26_1349
*20345 FILLER_26_1352
*20346 FILLER_26_1355
*20347 FILLER_26_1358
*20348 FILLER_26_1361
*20349 FILLER_26_15
*20350 FILLER_26_18
*20351 FILLER_26_21
*20352 FILLER_26_24
*20353 FILLER_26_27
*20354 FILLER_26_29
*20355 FILLER_26_3
*20356 FILLER_26_32
*20357 FILLER_26_35
*20358 FILLER_26_38
*20359 FILLER_26_41
*20360 FILLER_26_44
*20361 FILLER_26_47
*20362 FILLER_26_50
*20363 FILLER_26_53
*20364 FILLER_26_56
*20365 FILLER_26_59
*20366 FILLER_26_6
*20367 FILLER_26_62
*20368 FILLER_26_65
*20369 FILLER_26_68
*20370 FILLER_26_71
*20371 FILLER_26_74
*20372 FILLER_26_77
*20373 FILLER_26_80
*20374 FILLER_26_83
*20375 FILLER_26_85
*20376 FILLER_26_88
*20377 FILLER_26_9
*20378 FILLER_26_91
*20379 FILLER_26_94
*20380 FILLER_26_97
*20381 FILLER_27_102
*20382 FILLER_27_105
*20383 FILLER_27_108
*20384 FILLER_27_111
*20385 FILLER_27_113
*20386 FILLER_27_12
*20387 FILLER_27_1208
*20388 FILLER_27_1211
*20389 FILLER_27_1214
*20390 FILLER_27_1217
*20391 FILLER_27_1220
*20392 FILLER_27_1223
*20393 FILLER_27_1226
*20394 FILLER_27_1229
*20395 FILLER_27_1232
*20396 FILLER_27_1235
*20397 FILLER_27_1238
*20398 FILLER_27_1241
*20399 FILLER_27_1244
*20400 FILLER_27_1247
*20401 FILLER_27_1250
*20402 FILLER_27_1253
*20403 FILLER_27_1256
*20404 FILLER_27_1259
*20405 FILLER_27_1262
*20406 FILLER_27_1265
*20407 FILLER_27_1268
*20408 FILLER_27_1271
*20409 FILLER_27_1274
*20410 FILLER_27_1277
*20411 FILLER_27_1280
*20412 FILLER_27_1283
*20413 FILLER_27_1286
*20414 FILLER_27_1289
*20415 FILLER_27_1292
*20416 FILLER_27_1295
*20417 FILLER_27_1298
*20418 FILLER_27_1301
*20419 FILLER_27_1304
*20420 FILLER_27_1307
*20421 FILLER_27_1310
*20422 FILLER_27_1313
*20423 FILLER_27_1316
*20424 FILLER_27_1318
*20425 FILLER_27_1321
*20426 FILLER_27_1324
*20427 FILLER_27_1327
*20428 FILLER_27_1330
*20429 FILLER_27_1333
*20430 FILLER_27_1336
*20431 FILLER_27_1339
*20432 FILLER_27_1342
*20433 FILLER_27_1345
*20434 FILLER_27_1348
*20435 FILLER_27_1351
*20436 FILLER_27_1354
*20437 FILLER_27_1357
*20438 FILLER_27_1360
*20439 FILLER_27_1363
*20440 FILLER_27_15
*20441 FILLER_27_18
*20442 FILLER_27_21
*20443 FILLER_27_24
*20444 FILLER_27_27
*20445 FILLER_27_3
*20446 FILLER_27_30
*20447 FILLER_27_33
*20448 FILLER_27_36
*20449 FILLER_27_39
*20450 FILLER_27_42
*20451 FILLER_27_45
*20452 FILLER_27_48
*20453 FILLER_27_51
*20454 FILLER_27_54
*20455 FILLER_27_57
*20456 FILLER_27_6
*20457 FILLER_27_60
*20458 FILLER_27_63
*20459 FILLER_27_66
*20460 FILLER_27_69
*20461 FILLER_27_72
*20462 FILLER_27_75
*20463 FILLER_27_78
*20464 FILLER_27_81
*20465 FILLER_27_84
*20466 FILLER_27_87
*20467 FILLER_27_9
*20468 FILLER_27_90
*20469 FILLER_27_93
*20470 FILLER_27_96
*20471 FILLER_27_99
*20472 FILLER_28_100
*20473 FILLER_28_103
*20474 FILLER_28_106
*20475 FILLER_28_109
*20476 FILLER_28_112
*20477 FILLER_28_12
*20478 FILLER_28_1208
*20479 FILLER_28_1211
*20480 FILLER_28_1214
*20481 FILLER_28_1217
*20482 FILLER_28_1220
*20483 FILLER_28_1223
*20484 FILLER_28_1226
*20485 FILLER_28_1229
*20486 FILLER_28_1232
*20487 FILLER_28_1234
*20488 FILLER_28_1237
*20489 FILLER_28_1240
*20490 FILLER_28_1243
*20491 FILLER_28_1246
*20492 FILLER_28_1249
*20493 FILLER_28_1252
*20494 FILLER_28_1255
*20495 FILLER_28_1258
*20496 FILLER_28_1261
*20497 FILLER_28_1264
*20498 FILLER_28_1267
*20499 FILLER_28_1270
*20500 FILLER_28_1273
*20501 FILLER_28_1276
*20502 FILLER_28_1279
*20503 FILLER_28_1282
*20504 FILLER_28_1285
*20505 FILLER_28_1288
*20506 FILLER_28_1290
*20507 FILLER_28_1293
*20508 FILLER_28_1296
*20509 FILLER_28_1299
*20510 FILLER_28_1302
*20511 FILLER_28_1305
*20512 FILLER_28_1308
*20513 FILLER_28_1311
*20514 FILLER_28_1314
*20515 FILLER_28_1317
*20516 FILLER_28_1320
*20517 FILLER_28_1323
*20518 FILLER_28_1326
*20519 FILLER_28_1329
*20520 FILLER_28_1332
*20521 FILLER_28_1335
*20522 FILLER_28_1338
*20523 FILLER_28_1341
*20524 FILLER_28_1344
*20525 FILLER_28_1346
*20526 FILLER_28_1349
*20527 FILLER_28_1352
*20528 FILLER_28_1355
*20529 FILLER_28_1358
*20530 FILLER_28_1361
*20531 FILLER_28_15
*20532 FILLER_28_18
*20533 FILLER_28_21
*20534 FILLER_28_24
*20535 FILLER_28_27
*20536 FILLER_28_29
*20537 FILLER_28_3
*20538 FILLER_28_32
*20539 FILLER_28_35
*20540 FILLER_28_38
*20541 FILLER_28_41
*20542 FILLER_28_44
*20543 FILLER_28_47
*20544 FILLER_28_50
*20545 FILLER_28_53
*20546 FILLER_28_56
*20547 FILLER_28_59
*20548 FILLER_28_6
*20549 FILLER_28_62
*20550 FILLER_28_65
*20551 FILLER_28_68
*20552 FILLER_28_71
*20553 FILLER_28_74
*20554 FILLER_28_77
*20555 FILLER_28_80
*20556 FILLER_28_83
*20557 FILLER_28_85
*20558 FILLER_28_88
*20559 FILLER_28_9
*20560 FILLER_28_91
*20561 FILLER_28_94
*20562 FILLER_28_97
*20563 FILLER_29_102
*20564 FILLER_29_105
*20565 FILLER_29_108
*20566 FILLER_29_111
*20567 FILLER_29_113
*20568 FILLER_29_12
*20569 FILLER_29_1208
*20570 FILLER_29_1211
*20571 FILLER_29_1214
*20572 FILLER_29_1217
*20573 FILLER_29_1220
*20574 FILLER_29_1223
*20575 FILLER_29_1226
*20576 FILLER_29_1229
*20577 FILLER_29_1232
*20578 FILLER_29_1235
*20579 FILLER_29_1238
*20580 FILLER_29_1241
*20581 FILLER_29_1244
*20582 FILLER_29_1247
*20583 FILLER_29_1250
*20584 FILLER_29_1253
*20585 FILLER_29_1256
*20586 FILLER_29_1259
*20587 FILLER_29_1262
*20588 FILLER_29_1265
*20589 FILLER_29_1268
*20590 FILLER_29_1271
*20591 FILLER_29_1274
*20592 FILLER_29_1277
*20593 FILLER_29_1280
*20594 FILLER_29_1283
*20595 FILLER_29_1286
*20596 FILLER_29_1289
*20597 FILLER_29_1292
*20598 FILLER_29_1295
*20599 FILLER_29_1298
*20600 FILLER_29_1301
*20601 FILLER_29_1304
*20602 FILLER_29_1307
*20603 FILLER_29_1310
*20604 FILLER_29_1313
*20605 FILLER_29_1316
*20606 FILLER_29_1318
*20607 FILLER_29_1321
*20608 FILLER_29_1324
*20609 FILLER_29_1327
*20610 FILLER_29_1330
*20611 FILLER_29_1333
*20612 FILLER_29_1336
*20613 FILLER_29_1339
*20614 FILLER_29_1342
*20615 FILLER_29_1345
*20616 FILLER_29_1348
*20617 FILLER_29_1351
*20618 FILLER_29_1354
*20619 FILLER_29_1357
*20620 FILLER_29_1360
*20621 FILLER_29_1363
*20622 FILLER_29_15
*20623 FILLER_29_18
*20624 FILLER_29_21
*20625 FILLER_29_24
*20626 FILLER_29_27
*20627 FILLER_29_3
*20628 FILLER_29_30
*20629 FILLER_29_33
*20630 FILLER_29_36
*20631 FILLER_29_39
*20632 FILLER_29_42
*20633 FILLER_29_45
*20634 FILLER_29_48
*20635 FILLER_29_51
*20636 FILLER_29_54
*20637 FILLER_29_57
*20638 FILLER_29_6
*20639 FILLER_29_60
*20640 FILLER_29_63
*20641 FILLER_29_66
*20642 FILLER_29_69
*20643 FILLER_29_72
*20644 FILLER_29_75
*20645 FILLER_29_78
*20646 FILLER_29_81
*20647 FILLER_29_84
*20648 FILLER_29_87
*20649 FILLER_29_9
*20650 FILLER_29_90
*20651 FILLER_29_93
*20652 FILLER_29_96
*20653 FILLER_29_99
*20654 FILLER_2_100
*20655 FILLER_2_1002
*20656 FILLER_2_1005
*20657 FILLER_2_1008
*20658 FILLER_2_1011
*20659 FILLER_2_1014
*20660 FILLER_2_1017
*20661 FILLER_2_1020
*20662 FILLER_2_1023
*20663 FILLER_2_1026
*20664 FILLER_2_1029
*20665 FILLER_2_103
*20666 FILLER_2_1032
*20667 FILLER_2_1035
*20668 FILLER_2_1037
*20669 FILLER_2_1040
*20670 FILLER_2_1043
*20671 FILLER_2_1046
*20672 FILLER_2_1049
*20673 FILLER_2_1052
*20674 FILLER_2_1055
*20675 FILLER_2_1058
*20676 FILLER_2_106
*20677 FILLER_2_1061
*20678 FILLER_2_1064
*20679 FILLER_2_1067
*20680 FILLER_2_1070
*20681 FILLER_2_1073
*20682 FILLER_2_1076
*20683 FILLER_2_1079
*20684 FILLER_2_1082
*20685 FILLER_2_1085
*20686 FILLER_2_1088
*20687 FILLER_2_109
*20688 FILLER_2_1091
*20689 FILLER_2_1093
*20690 FILLER_2_1096
*20691 FILLER_2_1099
*20692 FILLER_2_1102
*20693 FILLER_2_1105
*20694 FILLER_2_1108
*20695 FILLER_2_1111
*20696 FILLER_2_1114
*20697 FILLER_2_1117
*20698 FILLER_2_112
*20699 FILLER_2_1120
*20700 FILLER_2_1123
*20701 FILLER_2_1126
*20702 FILLER_2_1129
*20703 FILLER_2_1132
*20704 FILLER_2_1135
*20705 FILLER_2_1138
*20706 FILLER_2_1141
*20707 FILLER_2_1144
*20708 FILLER_2_1147
*20709 FILLER_2_1149
*20710 FILLER_2_115
*20711 FILLER_2_1152
*20712 FILLER_2_1155
*20713 FILLER_2_1158
*20714 FILLER_2_1161
*20715 FILLER_2_1164
*20716 FILLER_2_1167
*20717 FILLER_2_1170
*20718 FILLER_2_1173
*20719 FILLER_2_1176
*20720 FILLER_2_1179
*20721 FILLER_2_118
*20722 FILLER_2_1182
*20723 FILLER_2_1185
*20724 FILLER_2_1188
*20725 FILLER_2_1191
*20726 FILLER_2_1194
*20727 FILLER_2_1197
*20728 FILLER_2_12
*20729 FILLER_2_1200
*20730 FILLER_2_1203
*20731 FILLER_2_1205
*20732 FILLER_2_1208
*20733 FILLER_2_121
*20734 FILLER_2_1211
*20735 FILLER_2_1214
*20736 FILLER_2_1217
*20737 FILLER_2_1220
*20738 FILLER_2_1223
*20739 FILLER_2_1226
*20740 FILLER_2_1229
*20741 FILLER_2_1232
*20742 FILLER_2_1235
*20743 FILLER_2_1238
*20744 FILLER_2_124
*20745 FILLER_2_1241
*20746 FILLER_2_1244
*20747 FILLER_2_1247
*20748 FILLER_2_1250
*20749 FILLER_2_1253
*20750 FILLER_2_1256
*20751 FILLER_2_1259
*20752 FILLER_2_1261
*20753 FILLER_2_1264
*20754 FILLER_2_1267
*20755 FILLER_2_127
*20756 FILLER_2_1270
*20757 FILLER_2_1273
*20758 FILLER_2_1276
*20759 FILLER_2_1279
*20760 FILLER_2_1282
*20761 FILLER_2_1285
*20762 FILLER_2_1288
*20763 FILLER_2_1291
*20764 FILLER_2_1294
*20765 FILLER_2_1297
*20766 FILLER_2_130
*20767 FILLER_2_1300
*20768 FILLER_2_1303
*20769 FILLER_2_1306
*20770 FILLER_2_1309
*20771 FILLER_2_1312
*20772 FILLER_2_1315
*20773 FILLER_2_1317
*20774 FILLER_2_1320
*20775 FILLER_2_1323
*20776 FILLER_2_1326
*20777 FILLER_2_1329
*20778 FILLER_2_133
*20779 FILLER_2_1332
*20780 FILLER_2_1335
*20781 FILLER_2_1338
*20782 FILLER_2_1341
*20783 FILLER_2_1344
*20784 FILLER_2_1347
*20785 FILLER_2_1350
*20786 FILLER_2_1353
*20787 FILLER_2_1356
*20788 FILLER_2_1359
*20789 FILLER_2_136
*20790 FILLER_2_1362
*20791 FILLER_2_139
*20792 FILLER_2_141
*20793 FILLER_2_144
*20794 FILLER_2_147
*20795 FILLER_2_15
*20796 FILLER_2_150
*20797 FILLER_2_153
*20798 FILLER_2_156
*20799 FILLER_2_159
*20800 FILLER_2_162
*20801 FILLER_2_165
*20802 FILLER_2_168
*20803 FILLER_2_171
*20804 FILLER_2_174
*20805 FILLER_2_177
*20806 FILLER_2_18
*20807 FILLER_2_180
*20808 FILLER_2_183
*20809 FILLER_2_186
*20810 FILLER_2_189
*20811 FILLER_2_192
*20812 FILLER_2_195
*20813 FILLER_2_197
*20814 FILLER_2_200
*20815 FILLER_2_203
*20816 FILLER_2_206
*20817 FILLER_2_209
*20818 FILLER_2_21
*20819 FILLER_2_212
*20820 FILLER_2_215
*20821 FILLER_2_218
*20822 FILLER_2_221
*20823 FILLER_2_224
*20824 FILLER_2_227
*20825 FILLER_2_230
*20826 FILLER_2_233
*20827 FILLER_2_236
*20828 FILLER_2_239
*20829 FILLER_2_24
*20830 FILLER_2_242
*20831 FILLER_2_245
*20832 FILLER_2_248
*20833 FILLER_2_251
*20834 FILLER_2_253
*20835 FILLER_2_256
*20836 FILLER_2_259
*20837 FILLER_2_262
*20838 FILLER_2_265
*20839 FILLER_2_268
*20840 FILLER_2_27
*20841 FILLER_2_271
*20842 FILLER_2_274
*20843 FILLER_2_277
*20844 FILLER_2_280
*20845 FILLER_2_283
*20846 FILLER_2_286
*20847 FILLER_2_289
*20848 FILLER_2_29
*20849 FILLER_2_292
*20850 FILLER_2_295
*20851 FILLER_2_298
*20852 FILLER_2_3
*20853 FILLER_2_301
*20854 FILLER_2_304
*20855 FILLER_2_307
*20856 FILLER_2_309
*20857 FILLER_2_312
*20858 FILLER_2_315
*20859 FILLER_2_318
*20860 FILLER_2_32
*20861 FILLER_2_321
*20862 FILLER_2_324
*20863 FILLER_2_327
*20864 FILLER_2_330
*20865 FILLER_2_333
*20866 FILLER_2_336
*20867 FILLER_2_339
*20868 FILLER_2_342
*20869 FILLER_2_345
*20870 FILLER_2_348
*20871 FILLER_2_35
*20872 FILLER_2_351
*20873 FILLER_2_354
*20874 FILLER_2_357
*20875 FILLER_2_360
*20876 FILLER_2_363
*20877 FILLER_2_365
*20878 FILLER_2_368
*20879 FILLER_2_371
*20880 FILLER_2_374
*20881 FILLER_2_377
*20882 FILLER_2_38
*20883 FILLER_2_380
*20884 FILLER_2_383
*20885 FILLER_2_386
*20886 FILLER_2_389
*20887 FILLER_2_392
*20888 FILLER_2_395
*20889 FILLER_2_398
*20890 FILLER_2_401
*20891 FILLER_2_404
*20892 FILLER_2_407
*20893 FILLER_2_41
*20894 FILLER_2_410
*20895 FILLER_2_413
*20896 FILLER_2_416
*20897 FILLER_2_419
*20898 FILLER_2_421
*20899 FILLER_2_424
*20900 FILLER_2_427
*20901 FILLER_2_430
*20902 FILLER_2_433
*20903 FILLER_2_436
*20904 FILLER_2_439
*20905 FILLER_2_44
*20906 FILLER_2_442
*20907 FILLER_2_445
*20908 FILLER_2_448
*20909 FILLER_2_451
*20910 FILLER_2_454
*20911 FILLER_2_457
*20912 FILLER_2_460
*20913 FILLER_2_463
*20914 FILLER_2_466
*20915 FILLER_2_469
*20916 FILLER_2_47
*20917 FILLER_2_472
*20918 FILLER_2_475
*20919 FILLER_2_477
*20920 FILLER_2_480
*20921 FILLER_2_483
*20922 FILLER_2_486
*20923 FILLER_2_489
*20924 FILLER_2_492
*20925 FILLER_2_495
*20926 FILLER_2_498
*20927 FILLER_2_50
*20928 FILLER_2_501
*20929 FILLER_2_504
*20930 FILLER_2_507
*20931 FILLER_2_510
*20932 FILLER_2_513
*20933 FILLER_2_516
*20934 FILLER_2_519
*20935 FILLER_2_522
*20936 FILLER_2_525
*20937 FILLER_2_528
*20938 FILLER_2_53
*20939 FILLER_2_531
*20940 FILLER_2_533
*20941 FILLER_2_536
*20942 FILLER_2_539
*20943 FILLER_2_542
*20944 FILLER_2_545
*20945 FILLER_2_548
*20946 FILLER_2_551
*20947 FILLER_2_554
*20948 FILLER_2_557
*20949 FILLER_2_56
*20950 FILLER_2_560
*20951 FILLER_2_563
*20952 FILLER_2_566
*20953 FILLER_2_569
*20954 FILLER_2_572
*20955 FILLER_2_575
*20956 FILLER_2_578
*20957 FILLER_2_581
*20958 FILLER_2_584
*20959 FILLER_2_587
*20960 FILLER_2_589
*20961 FILLER_2_59
*20962 FILLER_2_592
*20963 FILLER_2_595
*20964 FILLER_2_598
*20965 FILLER_2_6
*20966 FILLER_2_601
*20967 FILLER_2_604
*20968 FILLER_2_607
*20969 FILLER_2_610
*20970 FILLER_2_613
*20971 FILLER_2_616
*20972 FILLER_2_619
*20973 FILLER_2_62
*20974 FILLER_2_622
*20975 FILLER_2_625
*20976 FILLER_2_628
*20977 FILLER_2_631
*20978 FILLER_2_634
*20979 FILLER_2_637
*20980 FILLER_2_640
*20981 FILLER_2_643
*20982 FILLER_2_645
*20983 FILLER_2_648
*20984 FILLER_2_65
*20985 FILLER_2_651
*20986 FILLER_2_654
*20987 FILLER_2_657
*20988 FILLER_2_660
*20989 FILLER_2_663
*20990 FILLER_2_666
*20991 FILLER_2_669
*20992 FILLER_2_672
*20993 FILLER_2_675
*20994 FILLER_2_678
*20995 FILLER_2_68
*20996 FILLER_2_681
*20997 FILLER_2_684
*20998 FILLER_2_687
*20999 FILLER_2_690
*21000 FILLER_2_693
*21001 FILLER_2_696
*21002 FILLER_2_699
*21003 FILLER_2_701
*21004 FILLER_2_704
*21005 FILLER_2_707
*21006 FILLER_2_71
*21007 FILLER_2_710
*21008 FILLER_2_713
*21009 FILLER_2_716
*21010 FILLER_2_719
*21011 FILLER_2_722
*21012 FILLER_2_725
*21013 FILLER_2_728
*21014 FILLER_2_731
*21015 FILLER_2_734
*21016 FILLER_2_737
*21017 FILLER_2_74
*21018 FILLER_2_740
*21019 FILLER_2_743
*21020 FILLER_2_746
*21021 FILLER_2_749
*21022 FILLER_2_752
*21023 FILLER_2_755
*21024 FILLER_2_757
*21025 FILLER_2_760
*21026 FILLER_2_763
*21027 FILLER_2_766
*21028 FILLER_2_769
*21029 FILLER_2_77
*21030 FILLER_2_772
*21031 FILLER_2_775
*21032 FILLER_2_778
*21033 FILLER_2_781
*21034 FILLER_2_784
*21035 FILLER_2_787
*21036 FILLER_2_790
*21037 FILLER_2_793
*21038 FILLER_2_796
*21039 FILLER_2_799
*21040 FILLER_2_80
*21041 FILLER_2_802
*21042 FILLER_2_805
*21043 FILLER_2_808
*21044 FILLER_2_811
*21045 FILLER_2_813
*21046 FILLER_2_816
*21047 FILLER_2_819
*21048 FILLER_2_822
*21049 FILLER_2_825
*21050 FILLER_2_828
*21051 FILLER_2_83
*21052 FILLER_2_831
*21053 FILLER_2_834
*21054 FILLER_2_837
*21055 FILLER_2_840
*21056 FILLER_2_843
*21057 FILLER_2_846
*21058 FILLER_2_849
*21059 FILLER_2_85
*21060 FILLER_2_852
*21061 FILLER_2_855
*21062 FILLER_2_858
*21063 FILLER_2_861
*21064 FILLER_2_864
*21065 FILLER_2_867
*21066 FILLER_2_869
*21067 FILLER_2_872
*21068 FILLER_2_875
*21069 FILLER_2_878
*21070 FILLER_2_88
*21071 FILLER_2_881
*21072 FILLER_2_884
*21073 FILLER_2_887
*21074 FILLER_2_890
*21075 FILLER_2_893
*21076 FILLER_2_896
*21077 FILLER_2_899
*21078 FILLER_2_9
*21079 FILLER_2_902
*21080 FILLER_2_905
*21081 FILLER_2_908
*21082 FILLER_2_91
*21083 FILLER_2_911
*21084 FILLER_2_914
*21085 FILLER_2_917
*21086 FILLER_2_920
*21087 FILLER_2_923
*21088 FILLER_2_925
*21089 FILLER_2_928
*21090 FILLER_2_931
*21091 FILLER_2_934
*21092 FILLER_2_937
*21093 FILLER_2_94
*21094 FILLER_2_940
*21095 FILLER_2_943
*21096 FILLER_2_946
*21097 FILLER_2_949
*21098 FILLER_2_952
*21099 FILLER_2_955
*21100 FILLER_2_958
*21101 FILLER_2_961
*21102 FILLER_2_964
*21103 FILLER_2_967
*21104 FILLER_2_97
*21105 FILLER_2_970
*21106 FILLER_2_973
*21107 FILLER_2_976
*21108 FILLER_2_979
*21109 FILLER_2_981
*21110 FILLER_2_984
*21111 FILLER_2_987
*21112 FILLER_2_990
*21113 FILLER_2_993
*21114 FILLER_2_996
*21115 FILLER_2_999
*21116 FILLER_30_100
*21117 FILLER_30_103
*21118 FILLER_30_106
*21119 FILLER_30_109
*21120 FILLER_30_112
*21121 FILLER_30_12
*21122 FILLER_30_1208
*21123 FILLER_30_1211
*21124 FILLER_30_1214
*21125 FILLER_30_1217
*21126 FILLER_30_1220
*21127 FILLER_30_1223
*21128 FILLER_30_1226
*21129 FILLER_30_1229
*21130 FILLER_30_1232
*21131 FILLER_30_1234
*21132 FILLER_30_1237
*21133 FILLER_30_1240
*21134 FILLER_30_1243
*21135 FILLER_30_1246
*21136 FILLER_30_1249
*21137 FILLER_30_1252
*21138 FILLER_30_1255
*21139 FILLER_30_1258
*21140 FILLER_30_1261
*21141 FILLER_30_1264
*21142 FILLER_30_1267
*21143 FILLER_30_1270
*21144 FILLER_30_1273
*21145 FILLER_30_1276
*21146 FILLER_30_1279
*21147 FILLER_30_1282
*21148 FILLER_30_1285
*21149 FILLER_30_1288
*21150 FILLER_30_1290
*21151 FILLER_30_1293
*21152 FILLER_30_1296
*21153 FILLER_30_1299
*21154 FILLER_30_1302
*21155 FILLER_30_1305
*21156 FILLER_30_1308
*21157 FILLER_30_1311
*21158 FILLER_30_1314
*21159 FILLER_30_1317
*21160 FILLER_30_1320
*21161 FILLER_30_1323
*21162 FILLER_30_1326
*21163 FILLER_30_1329
*21164 FILLER_30_1332
*21165 FILLER_30_1335
*21166 FILLER_30_1338
*21167 FILLER_30_1341
*21168 FILLER_30_1344
*21169 FILLER_30_1346
*21170 FILLER_30_1349
*21171 FILLER_30_1352
*21172 FILLER_30_1355
*21173 FILLER_30_1358
*21174 FILLER_30_1361
*21175 FILLER_30_15
*21176 FILLER_30_18
*21177 FILLER_30_21
*21178 FILLER_30_24
*21179 FILLER_30_27
*21180 FILLER_30_29
*21181 FILLER_30_3
*21182 FILLER_30_32
*21183 FILLER_30_35
*21184 FILLER_30_38
*21185 FILLER_30_41
*21186 FILLER_30_44
*21187 FILLER_30_47
*21188 FILLER_30_50
*21189 FILLER_30_53
*21190 FILLER_30_56
*21191 FILLER_30_59
*21192 FILLER_30_6
*21193 FILLER_30_62
*21194 FILLER_30_65
*21195 FILLER_30_68
*21196 FILLER_30_71
*21197 FILLER_30_74
*21198 FILLER_30_77
*21199 FILLER_30_80
*21200 FILLER_30_83
*21201 FILLER_30_85
*21202 FILLER_30_88
*21203 FILLER_30_9
*21204 FILLER_30_91
*21205 FILLER_30_94
*21206 FILLER_30_97
*21207 FILLER_31_102
*21208 FILLER_31_105
*21209 FILLER_31_108
*21210 FILLER_31_111
*21211 FILLER_31_113
*21212 FILLER_31_12
*21213 FILLER_31_1208
*21214 FILLER_31_1211
*21215 FILLER_31_1214
*21216 FILLER_31_1217
*21217 FILLER_31_1220
*21218 FILLER_31_1223
*21219 FILLER_31_1226
*21220 FILLER_31_1229
*21221 FILLER_31_1232
*21222 FILLER_31_1235
*21223 FILLER_31_1238
*21224 FILLER_31_1241
*21225 FILLER_31_1244
*21226 FILLER_31_1247
*21227 FILLER_31_1250
*21228 FILLER_31_1253
*21229 FILLER_31_1256
*21230 FILLER_31_1259
*21231 FILLER_31_1262
*21232 FILLER_31_1265
*21233 FILLER_31_1268
*21234 FILLER_31_1271
*21235 FILLER_31_1274
*21236 FILLER_31_1277
*21237 FILLER_31_1280
*21238 FILLER_31_1283
*21239 FILLER_31_1286
*21240 FILLER_31_1289
*21241 FILLER_31_1292
*21242 FILLER_31_1295
*21243 FILLER_31_1298
*21244 FILLER_31_1301
*21245 FILLER_31_1304
*21246 FILLER_31_1307
*21247 FILLER_31_1310
*21248 FILLER_31_1313
*21249 FILLER_31_1316
*21250 FILLER_31_1318
*21251 FILLER_31_1321
*21252 FILLER_31_1324
*21253 FILLER_31_1327
*21254 FILLER_31_1330
*21255 FILLER_31_1333
*21256 FILLER_31_1336
*21257 FILLER_31_1339
*21258 FILLER_31_1342
*21259 FILLER_31_1345
*21260 FILLER_31_1348
*21261 FILLER_31_1351
*21262 FILLER_31_1354
*21263 FILLER_31_1357
*21264 FILLER_31_1360
*21265 FILLER_31_1363
*21266 FILLER_31_15
*21267 FILLER_31_18
*21268 FILLER_31_21
*21269 FILLER_31_24
*21270 FILLER_31_27
*21271 FILLER_31_3
*21272 FILLER_31_30
*21273 FILLER_31_33
*21274 FILLER_31_36
*21275 FILLER_31_39
*21276 FILLER_31_42
*21277 FILLER_31_45
*21278 FILLER_31_48
*21279 FILLER_31_51
*21280 FILLER_31_54
*21281 FILLER_31_57
*21282 FILLER_31_6
*21283 FILLER_31_60
*21284 FILLER_31_63
*21285 FILLER_31_66
*21286 FILLER_31_69
*21287 FILLER_31_72
*21288 FILLER_31_75
*21289 FILLER_31_78
*21290 FILLER_31_81
*21291 FILLER_31_84
*21292 FILLER_31_87
*21293 FILLER_31_9
*21294 FILLER_31_90
*21295 FILLER_31_93
*21296 FILLER_31_96
*21297 FILLER_31_99
*21298 FILLER_32_100
*21299 FILLER_32_103
*21300 FILLER_32_106
*21301 FILLER_32_109
*21302 FILLER_32_112
*21303 FILLER_32_12
*21304 FILLER_32_1208
*21305 FILLER_32_1211
*21306 FILLER_32_1214
*21307 FILLER_32_1217
*21308 FILLER_32_1220
*21309 FILLER_32_1223
*21310 FILLER_32_1226
*21311 FILLER_32_1229
*21312 FILLER_32_1232
*21313 FILLER_32_1234
*21314 FILLER_32_1237
*21315 FILLER_32_1240
*21316 FILLER_32_1243
*21317 FILLER_32_1246
*21318 FILLER_32_1249
*21319 FILLER_32_1252
*21320 FILLER_32_1255
*21321 FILLER_32_1258
*21322 FILLER_32_1261
*21323 FILLER_32_1264
*21324 FILLER_32_1267
*21325 FILLER_32_1270
*21326 FILLER_32_1273
*21327 FILLER_32_1276
*21328 FILLER_32_1279
*21329 FILLER_32_1282
*21330 FILLER_32_1285
*21331 FILLER_32_1288
*21332 FILLER_32_1290
*21333 FILLER_32_1293
*21334 FILLER_32_1296
*21335 FILLER_32_1299
*21336 FILLER_32_1302
*21337 FILLER_32_1305
*21338 FILLER_32_1308
*21339 FILLER_32_1311
*21340 FILLER_32_1314
*21341 FILLER_32_1317
*21342 FILLER_32_1320
*21343 FILLER_32_1323
*21344 FILLER_32_1326
*21345 FILLER_32_1329
*21346 FILLER_32_1332
*21347 FILLER_32_1335
*21348 FILLER_32_1338
*21349 FILLER_32_1341
*21350 FILLER_32_1344
*21351 FILLER_32_1346
*21352 FILLER_32_1349
*21353 FILLER_32_1352
*21354 FILLER_32_1355
*21355 FILLER_32_1358
*21356 FILLER_32_1361
*21357 FILLER_32_15
*21358 FILLER_32_18
*21359 FILLER_32_21
*21360 FILLER_32_24
*21361 FILLER_32_27
*21362 FILLER_32_29
*21363 FILLER_32_3
*21364 FILLER_32_32
*21365 FILLER_32_35
*21366 FILLER_32_38
*21367 FILLER_32_41
*21368 FILLER_32_44
*21369 FILLER_32_47
*21370 FILLER_32_50
*21371 FILLER_32_53
*21372 FILLER_32_56
*21373 FILLER_32_59
*21374 FILLER_32_6
*21375 FILLER_32_62
*21376 FILLER_32_65
*21377 FILLER_32_68
*21378 FILLER_32_71
*21379 FILLER_32_74
*21380 FILLER_32_77
*21381 FILLER_32_80
*21382 FILLER_32_83
*21383 FILLER_32_85
*21384 FILLER_32_88
*21385 FILLER_32_9
*21386 FILLER_32_91
*21387 FILLER_32_94
*21388 FILLER_32_97
*21389 FILLER_33_102
*21390 FILLER_33_105
*21391 FILLER_33_108
*21392 FILLER_33_111
*21393 FILLER_33_113
*21394 FILLER_33_12
*21395 FILLER_33_1208
*21396 FILLER_33_1211
*21397 FILLER_33_1214
*21398 FILLER_33_1217
*21399 FILLER_33_1220
*21400 FILLER_33_1223
*21401 FILLER_33_1226
*21402 FILLER_33_1229
*21403 FILLER_33_1232
*21404 FILLER_33_1235
*21405 FILLER_33_1238
*21406 FILLER_33_1241
*21407 FILLER_33_1244
*21408 FILLER_33_1247
*21409 FILLER_33_1250
*21410 FILLER_33_1253
*21411 FILLER_33_1256
*21412 FILLER_33_1259
*21413 FILLER_33_1262
*21414 FILLER_33_1265
*21415 FILLER_33_1268
*21416 FILLER_33_1271
*21417 FILLER_33_1274
*21418 FILLER_33_1277
*21419 FILLER_33_1280
*21420 FILLER_33_1283
*21421 FILLER_33_1286
*21422 FILLER_33_1289
*21423 FILLER_33_1292
*21424 FILLER_33_1295
*21425 FILLER_33_1298
*21426 FILLER_33_1301
*21427 FILLER_33_1304
*21428 FILLER_33_1307
*21429 FILLER_33_1310
*21430 FILLER_33_1313
*21431 FILLER_33_1316
*21432 FILLER_33_1318
*21433 FILLER_33_1321
*21434 FILLER_33_1324
*21435 FILLER_33_1327
*21436 FILLER_33_1330
*21437 FILLER_33_1333
*21438 FILLER_33_1336
*21439 FILLER_33_1339
*21440 FILLER_33_1342
*21441 FILLER_33_1345
*21442 FILLER_33_1348
*21443 FILLER_33_1351
*21444 FILLER_33_1354
*21445 FILLER_33_1357
*21446 FILLER_33_1360
*21447 FILLER_33_1363
*21448 FILLER_33_15
*21449 FILLER_33_18
*21450 FILLER_33_21
*21451 FILLER_33_24
*21452 FILLER_33_27
*21453 FILLER_33_3
*21454 FILLER_33_30
*21455 FILLER_33_33
*21456 FILLER_33_36
*21457 FILLER_33_39
*21458 FILLER_33_42
*21459 FILLER_33_45
*21460 FILLER_33_48
*21461 FILLER_33_51
*21462 FILLER_33_54
*21463 FILLER_33_57
*21464 FILLER_33_6
*21465 FILLER_33_60
*21466 FILLER_33_63
*21467 FILLER_33_66
*21468 FILLER_33_69
*21469 FILLER_33_72
*21470 FILLER_33_75
*21471 FILLER_33_78
*21472 FILLER_33_81
*21473 FILLER_33_84
*21474 FILLER_33_87
*21475 FILLER_33_9
*21476 FILLER_33_90
*21477 FILLER_33_93
*21478 FILLER_33_96
*21479 FILLER_33_99
*21480 FILLER_34_100
*21481 FILLER_34_103
*21482 FILLER_34_106
*21483 FILLER_34_109
*21484 FILLER_34_112
*21485 FILLER_34_12
*21486 FILLER_34_1208
*21487 FILLER_34_1211
*21488 FILLER_34_1214
*21489 FILLER_34_1217
*21490 FILLER_34_1220
*21491 FILLER_34_1223
*21492 FILLER_34_1226
*21493 FILLER_34_1229
*21494 FILLER_34_1232
*21495 FILLER_34_1234
*21496 FILLER_34_1237
*21497 FILLER_34_1240
*21498 FILLER_34_1243
*21499 FILLER_34_1246
*21500 FILLER_34_1249
*21501 FILLER_34_1252
*21502 FILLER_34_1255
*21503 FILLER_34_1258
*21504 FILLER_34_1261
*21505 FILLER_34_1264
*21506 FILLER_34_1267
*21507 FILLER_34_1270
*21508 FILLER_34_1273
*21509 FILLER_34_1276
*21510 FILLER_34_1279
*21511 FILLER_34_1282
*21512 FILLER_34_1285
*21513 FILLER_34_1288
*21514 FILLER_34_1290
*21515 FILLER_34_1293
*21516 FILLER_34_1296
*21517 FILLER_34_1299
*21518 FILLER_34_1302
*21519 FILLER_34_1305
*21520 FILLER_34_1308
*21521 FILLER_34_1311
*21522 FILLER_34_1314
*21523 FILLER_34_1317
*21524 FILLER_34_1320
*21525 FILLER_34_1323
*21526 FILLER_34_1326
*21527 FILLER_34_1329
*21528 FILLER_34_1332
*21529 FILLER_34_1335
*21530 FILLER_34_1338
*21531 FILLER_34_1341
*21532 FILLER_34_1344
*21533 FILLER_34_1346
*21534 FILLER_34_1349
*21535 FILLER_34_1352
*21536 FILLER_34_1355
*21537 FILLER_34_1358
*21538 FILLER_34_1361
*21539 FILLER_34_15
*21540 FILLER_34_18
*21541 FILLER_34_21
*21542 FILLER_34_24
*21543 FILLER_34_27
*21544 FILLER_34_29
*21545 FILLER_34_3
*21546 FILLER_34_32
*21547 FILLER_34_35
*21548 FILLER_34_38
*21549 FILLER_34_41
*21550 FILLER_34_44
*21551 FILLER_34_47
*21552 FILLER_34_50
*21553 FILLER_34_53
*21554 FILLER_34_56
*21555 FILLER_34_59
*21556 FILLER_34_6
*21557 FILLER_34_62
*21558 FILLER_34_65
*21559 FILLER_34_68
*21560 FILLER_34_71
*21561 FILLER_34_74
*21562 FILLER_34_77
*21563 FILLER_34_80
*21564 FILLER_34_83
*21565 FILLER_34_85
*21566 FILLER_34_88
*21567 FILLER_34_9
*21568 FILLER_34_91
*21569 FILLER_34_94
*21570 FILLER_34_97
*21571 FILLER_35_102
*21572 FILLER_35_105
*21573 FILLER_35_108
*21574 FILLER_35_111
*21575 FILLER_35_113
*21576 FILLER_35_12
*21577 FILLER_35_1208
*21578 FILLER_35_1211
*21579 FILLER_35_1214
*21580 FILLER_35_1217
*21581 FILLER_35_1220
*21582 FILLER_35_1223
*21583 FILLER_35_1226
*21584 FILLER_35_1229
*21585 FILLER_35_1232
*21586 FILLER_35_1235
*21587 FILLER_35_1238
*21588 FILLER_35_1241
*21589 FILLER_35_1244
*21590 FILLER_35_1247
*21591 FILLER_35_1250
*21592 FILLER_35_1253
*21593 FILLER_35_1256
*21594 FILLER_35_1259
*21595 FILLER_35_1262
*21596 FILLER_35_1265
*21597 FILLER_35_1268
*21598 FILLER_35_1271
*21599 FILLER_35_1274
*21600 FILLER_35_1277
*21601 FILLER_35_1280
*21602 FILLER_35_1283
*21603 FILLER_35_1286
*21604 FILLER_35_1289
*21605 FILLER_35_1292
*21606 FILLER_35_1295
*21607 FILLER_35_1298
*21608 FILLER_35_1301
*21609 FILLER_35_1304
*21610 FILLER_35_1307
*21611 FILLER_35_1310
*21612 FILLER_35_1313
*21613 FILLER_35_1316
*21614 FILLER_35_1318
*21615 FILLER_35_1321
*21616 FILLER_35_1324
*21617 FILLER_35_1327
*21618 FILLER_35_1330
*21619 FILLER_35_1333
*21620 FILLER_35_1336
*21621 FILLER_35_1339
*21622 FILLER_35_1342
*21623 FILLER_35_1345
*21624 FILLER_35_1348
*21625 FILLER_35_1351
*21626 FILLER_35_1354
*21627 FILLER_35_1357
*21628 FILLER_35_1360
*21629 FILLER_35_1363
*21630 FILLER_35_15
*21631 FILLER_35_18
*21632 FILLER_35_21
*21633 FILLER_35_24
*21634 FILLER_35_27
*21635 FILLER_35_3
*21636 FILLER_35_30
*21637 FILLER_35_33
*21638 FILLER_35_36
*21639 FILLER_35_39
*21640 FILLER_35_42
*21641 FILLER_35_45
*21642 FILLER_35_48
*21643 FILLER_35_51
*21644 FILLER_35_54
*21645 FILLER_35_57
*21646 FILLER_35_6
*21647 FILLER_35_60
*21648 FILLER_35_63
*21649 FILLER_35_66
*21650 FILLER_35_69
*21651 FILLER_35_72
*21652 FILLER_35_75
*21653 FILLER_35_78
*21654 FILLER_35_81
*21655 FILLER_35_84
*21656 FILLER_35_87
*21657 FILLER_35_9
*21658 FILLER_35_90
*21659 FILLER_35_93
*21660 FILLER_35_96
*21661 FILLER_35_99
*21662 FILLER_36_100
*21663 FILLER_36_103
*21664 FILLER_36_106
*21665 FILLER_36_109
*21666 FILLER_36_112
*21667 FILLER_36_12
*21668 FILLER_36_1208
*21669 FILLER_36_1211
*21670 FILLER_36_1214
*21671 FILLER_36_1217
*21672 FILLER_36_1220
*21673 FILLER_36_1223
*21674 FILLER_36_1226
*21675 FILLER_36_1229
*21676 FILLER_36_1232
*21677 FILLER_36_1234
*21678 FILLER_36_1237
*21679 FILLER_36_1240
*21680 FILLER_36_1243
*21681 FILLER_36_1246
*21682 FILLER_36_1249
*21683 FILLER_36_1252
*21684 FILLER_36_1255
*21685 FILLER_36_1258
*21686 FILLER_36_1261
*21687 FILLER_36_1264
*21688 FILLER_36_1267
*21689 FILLER_36_1270
*21690 FILLER_36_1273
*21691 FILLER_36_1276
*21692 FILLER_36_1279
*21693 FILLER_36_1282
*21694 FILLER_36_1285
*21695 FILLER_36_1288
*21696 FILLER_36_1290
*21697 FILLER_36_1293
*21698 FILLER_36_1296
*21699 FILLER_36_1299
*21700 FILLER_36_1302
*21701 FILLER_36_1305
*21702 FILLER_36_1308
*21703 FILLER_36_1311
*21704 FILLER_36_1314
*21705 FILLER_36_1317
*21706 FILLER_36_1320
*21707 FILLER_36_1323
*21708 FILLER_36_1326
*21709 FILLER_36_1329
*21710 FILLER_36_1332
*21711 FILLER_36_1335
*21712 FILLER_36_1338
*21713 FILLER_36_1341
*21714 FILLER_36_1344
*21715 FILLER_36_1346
*21716 FILLER_36_1349
*21717 FILLER_36_1352
*21718 FILLER_36_1355
*21719 FILLER_36_1358
*21720 FILLER_36_1361
*21721 FILLER_36_15
*21722 FILLER_36_18
*21723 FILLER_36_21
*21724 FILLER_36_24
*21725 FILLER_36_27
*21726 FILLER_36_29
*21727 FILLER_36_3
*21728 FILLER_36_32
*21729 FILLER_36_35
*21730 FILLER_36_38
*21731 FILLER_36_41
*21732 FILLER_36_44
*21733 FILLER_36_47
*21734 FILLER_36_50
*21735 FILLER_36_53
*21736 FILLER_36_56
*21737 FILLER_36_59
*21738 FILLER_36_6
*21739 FILLER_36_62
*21740 FILLER_36_65
*21741 FILLER_36_68
*21742 FILLER_36_71
*21743 FILLER_36_74
*21744 FILLER_36_77
*21745 FILLER_36_80
*21746 FILLER_36_83
*21747 FILLER_36_85
*21748 FILLER_36_88
*21749 FILLER_36_9
*21750 FILLER_36_91
*21751 FILLER_36_94
*21752 FILLER_36_97
*21753 FILLER_37_102
*21754 FILLER_37_105
*21755 FILLER_37_108
*21756 FILLER_37_111
*21757 FILLER_37_113
*21758 FILLER_37_12
*21759 FILLER_37_1208
*21760 FILLER_37_1211
*21761 FILLER_37_1214
*21762 FILLER_37_1217
*21763 FILLER_37_1220
*21764 FILLER_37_1223
*21765 FILLER_37_1226
*21766 FILLER_37_1229
*21767 FILLER_37_1232
*21768 FILLER_37_1235
*21769 FILLER_37_1238
*21770 FILLER_37_1241
*21771 FILLER_37_1244
*21772 FILLER_37_1247
*21773 FILLER_37_1250
*21774 FILLER_37_1253
*21775 FILLER_37_1256
*21776 FILLER_37_1259
*21777 FILLER_37_1262
*21778 FILLER_37_1265
*21779 FILLER_37_1268
*21780 FILLER_37_1271
*21781 FILLER_37_1274
*21782 FILLER_37_1277
*21783 FILLER_37_1280
*21784 FILLER_37_1283
*21785 FILLER_37_1286
*21786 FILLER_37_1289
*21787 FILLER_37_1292
*21788 FILLER_37_1295
*21789 FILLER_37_1298
*21790 FILLER_37_1301
*21791 FILLER_37_1304
*21792 FILLER_37_1307
*21793 FILLER_37_1310
*21794 FILLER_37_1313
*21795 FILLER_37_1316
*21796 FILLER_37_1318
*21797 FILLER_37_1321
*21798 FILLER_37_1324
*21799 FILLER_37_1327
*21800 FILLER_37_1330
*21801 FILLER_37_1333
*21802 FILLER_37_1336
*21803 FILLER_37_1339
*21804 FILLER_37_1342
*21805 FILLER_37_1345
*21806 FILLER_37_1348
*21807 FILLER_37_1351
*21808 FILLER_37_1354
*21809 FILLER_37_1357
*21810 FILLER_37_1360
*21811 FILLER_37_1363
*21812 FILLER_37_15
*21813 FILLER_37_18
*21814 FILLER_37_21
*21815 FILLER_37_24
*21816 FILLER_37_27
*21817 FILLER_37_3
*21818 FILLER_37_30
*21819 FILLER_37_33
*21820 FILLER_37_36
*21821 FILLER_37_39
*21822 FILLER_37_42
*21823 FILLER_37_45
*21824 FILLER_37_48
*21825 FILLER_37_51
*21826 FILLER_37_54
*21827 FILLER_37_57
*21828 FILLER_37_6
*21829 FILLER_37_60
*21830 FILLER_37_63
*21831 FILLER_37_66
*21832 FILLER_37_69
*21833 FILLER_37_72
*21834 FILLER_37_75
*21835 FILLER_37_78
*21836 FILLER_37_81
*21837 FILLER_37_84
*21838 FILLER_37_87
*21839 FILLER_37_9
*21840 FILLER_37_90
*21841 FILLER_37_93
*21842 FILLER_37_96
*21843 FILLER_37_99
*21844 FILLER_38_100
*21845 FILLER_38_103
*21846 FILLER_38_106
*21847 FILLER_38_109
*21848 FILLER_38_12
*21849 FILLER_38_1208
*21850 FILLER_38_1211
*21851 FILLER_38_1214
*21852 FILLER_38_1217
*21853 FILLER_38_1220
*21854 FILLER_38_1223
*21855 FILLER_38_1226
*21856 FILLER_38_1229
*21857 FILLER_38_1232
*21858 FILLER_38_1234
*21859 FILLER_38_1237
*21860 FILLER_38_1240
*21861 FILLER_38_1243
*21862 FILLER_38_1246
*21863 FILLER_38_1249
*21864 FILLER_38_1252
*21865 FILLER_38_1255
*21866 FILLER_38_1258
*21867 FILLER_38_1261
*21868 FILLER_38_1264
*21869 FILLER_38_1267
*21870 FILLER_38_1270
*21871 FILLER_38_1273
*21872 FILLER_38_1276
*21873 FILLER_38_1279
*21874 FILLER_38_1282
*21875 FILLER_38_1285
*21876 FILLER_38_1288
*21877 FILLER_38_1290
*21878 FILLER_38_1293
*21879 FILLER_38_1296
*21880 FILLER_38_1299
*21881 FILLER_38_1302
*21882 FILLER_38_1305
*21883 FILLER_38_1308
*21884 FILLER_38_1311
*21885 FILLER_38_1314
*21886 FILLER_38_1317
*21887 FILLER_38_1320
*21888 FILLER_38_1323
*21889 FILLER_38_1326
*21890 FILLER_38_1329
*21891 FILLER_38_1332
*21892 FILLER_38_1335
*21893 FILLER_38_1338
*21894 FILLER_38_1341
*21895 FILLER_38_1344
*21896 FILLER_38_1346
*21897 FILLER_38_1349
*21898 FILLER_38_1352
*21899 FILLER_38_1355
*21900 FILLER_38_1358
*21901 FILLER_38_1361
*21902 FILLER_38_15
*21903 FILLER_38_18
*21904 FILLER_38_21
*21905 FILLER_38_24
*21906 FILLER_38_27
*21907 FILLER_38_29
*21908 FILLER_38_3
*21909 FILLER_38_32
*21910 FILLER_38_35
*21911 FILLER_38_38
*21912 FILLER_38_41
*21913 FILLER_38_44
*21914 FILLER_38_47
*21915 FILLER_38_50
*21916 FILLER_38_53
*21917 FILLER_38_56
*21918 FILLER_38_59
*21919 FILLER_38_6
*21920 FILLER_38_62
*21921 FILLER_38_65
*21922 FILLER_38_68
*21923 FILLER_38_71
*21924 FILLER_38_74
*21925 FILLER_38_77
*21926 FILLER_38_80
*21927 FILLER_38_83
*21928 FILLER_38_85
*21929 FILLER_38_88
*21930 FILLER_38_9
*21931 FILLER_38_91
*21932 FILLER_38_94
*21933 FILLER_38_97
*21934 FILLER_39_102
*21935 FILLER_39_105
*21936 FILLER_39_108
*21937 FILLER_39_111
*21938 FILLER_39_113
*21939 FILLER_39_12
*21940 FILLER_39_1208
*21941 FILLER_39_1211
*21942 FILLER_39_1214
*21943 FILLER_39_1217
*21944 FILLER_39_1220
*21945 FILLER_39_1223
*21946 FILLER_39_1226
*21947 FILLER_39_1229
*21948 FILLER_39_1232
*21949 FILLER_39_1235
*21950 FILLER_39_1238
*21951 FILLER_39_1241
*21952 FILLER_39_1244
*21953 FILLER_39_1247
*21954 FILLER_39_1250
*21955 FILLER_39_1253
*21956 FILLER_39_1256
*21957 FILLER_39_1259
*21958 FILLER_39_1262
*21959 FILLER_39_1265
*21960 FILLER_39_1268
*21961 FILLER_39_1271
*21962 FILLER_39_1274
*21963 FILLER_39_1277
*21964 FILLER_39_1280
*21965 FILLER_39_1283
*21966 FILLER_39_1286
*21967 FILLER_39_1289
*21968 FILLER_39_1292
*21969 FILLER_39_1295
*21970 FILLER_39_1298
*21971 FILLER_39_1301
*21972 FILLER_39_1304
*21973 FILLER_39_1307
*21974 FILLER_39_1310
*21975 FILLER_39_1313
*21976 FILLER_39_1316
*21977 FILLER_39_1318
*21978 FILLER_39_1321
*21979 FILLER_39_1324
*21980 FILLER_39_1327
*21981 FILLER_39_1330
*21982 FILLER_39_1333
*21983 FILLER_39_1336
*21984 FILLER_39_1339
*21985 FILLER_39_1342
*21986 FILLER_39_1345
*21987 FILLER_39_1348
*21988 FILLER_39_1351
*21989 FILLER_39_1354
*21990 FILLER_39_1357
*21991 FILLER_39_1360
*21992 FILLER_39_1363
*21993 FILLER_39_15
*21994 FILLER_39_18
*21995 FILLER_39_21
*21996 FILLER_39_24
*21997 FILLER_39_27
*21998 FILLER_39_3
*21999 FILLER_39_30
*22000 FILLER_39_33
*22001 FILLER_39_36
*22002 FILLER_39_39
*22003 FILLER_39_42
*22004 FILLER_39_45
*22005 FILLER_39_48
*22006 FILLER_39_51
*22007 FILLER_39_54
*22008 FILLER_39_57
*22009 FILLER_39_6
*22010 FILLER_39_60
*22011 FILLER_39_63
*22012 FILLER_39_66
*22013 FILLER_39_69
*22014 FILLER_39_72
*22015 FILLER_39_75
*22016 FILLER_39_78
*22017 FILLER_39_81
*22018 FILLER_39_84
*22019 FILLER_39_87
*22020 FILLER_39_9
*22021 FILLER_39_90
*22022 FILLER_39_93
*22023 FILLER_39_96
*22024 FILLER_39_99
*22025 FILLER_3_1001
*22026 FILLER_3_1004
*22027 FILLER_3_1007
*22028 FILLER_3_1009
*22029 FILLER_3_1012
*22030 FILLER_3_1015
*22031 FILLER_3_1018
*22032 FILLER_3_102
*22033 FILLER_3_1021
*22034 FILLER_3_1024
*22035 FILLER_3_1027
*22036 FILLER_3_1030
*22037 FILLER_3_1033
*22038 FILLER_3_1036
*22039 FILLER_3_1039
*22040 FILLER_3_1042
*22041 FILLER_3_1045
*22042 FILLER_3_1048
*22043 FILLER_3_105
*22044 FILLER_3_1051
*22045 FILLER_3_1054
*22046 FILLER_3_1057
*22047 FILLER_3_1060
*22048 FILLER_3_1063
*22049 FILLER_3_1065
*22050 FILLER_3_1068
*22051 FILLER_3_1071
*22052 FILLER_3_1074
*22053 FILLER_3_1077
*22054 FILLER_3_108
*22055 FILLER_3_1080
*22056 FILLER_3_1083
*22057 FILLER_3_1086
*22058 FILLER_3_1089
*22059 FILLER_3_1092
*22060 FILLER_3_1095
*22061 FILLER_3_1098
*22062 FILLER_3_1101
*22063 FILLER_3_1104
*22064 FILLER_3_1107
*22065 FILLER_3_111
*22066 FILLER_3_1110
*22067 FILLER_3_1113
*22068 FILLER_3_1116
*22069 FILLER_3_1119
*22070 FILLER_3_1121
*22071 FILLER_3_1124
*22072 FILLER_3_1127
*22073 FILLER_3_113
*22074 FILLER_3_1130
*22075 FILLER_3_1133
*22076 FILLER_3_1136
*22077 FILLER_3_1139
*22078 FILLER_3_1142
*22079 FILLER_3_1145
*22080 FILLER_3_1148
*22081 FILLER_3_1151
*22082 FILLER_3_1154
*22083 FILLER_3_1157
*22084 FILLER_3_116
*22085 FILLER_3_1160
*22086 FILLER_3_1163
*22087 FILLER_3_1166
*22088 FILLER_3_1169
*22089 FILLER_3_1172
*22090 FILLER_3_1175
*22091 FILLER_3_1177
*22092 FILLER_3_1180
*22093 FILLER_3_1183
*22094 FILLER_3_1186
*22095 FILLER_3_1189
*22096 FILLER_3_119
*22097 FILLER_3_1192
*22098 FILLER_3_1195
*22099 FILLER_3_1198
*22100 FILLER_3_12
*22101 FILLER_3_1201
*22102 FILLER_3_1204
*22103 FILLER_3_1207
*22104 FILLER_3_1210
*22105 FILLER_3_1213
*22106 FILLER_3_1216
*22107 FILLER_3_1219
*22108 FILLER_3_122
*22109 FILLER_3_1222
*22110 FILLER_3_1225
*22111 FILLER_3_1228
*22112 FILLER_3_1231
*22113 FILLER_3_1233
*22114 FILLER_3_1236
*22115 FILLER_3_1239
*22116 FILLER_3_1242
*22117 FILLER_3_1245
*22118 FILLER_3_1248
*22119 FILLER_3_125
*22120 FILLER_3_1251
*22121 FILLER_3_1254
*22122 FILLER_3_1257
*22123 FILLER_3_1260
*22124 FILLER_3_1263
*22125 FILLER_3_1266
*22126 FILLER_3_1269
*22127 FILLER_3_1272
*22128 FILLER_3_1275
*22129 FILLER_3_1278
*22130 FILLER_3_128
*22131 FILLER_3_1281
*22132 FILLER_3_1284
*22133 FILLER_3_1287
*22134 FILLER_3_1289
*22135 FILLER_3_1292
*22136 FILLER_3_1295
*22137 FILLER_3_1298
*22138 FILLER_3_1301
*22139 FILLER_3_1304
*22140 FILLER_3_1307
*22141 FILLER_3_131
*22142 FILLER_3_1310
*22143 FILLER_3_1313
*22144 FILLER_3_1316
*22145 FILLER_3_1319
*22146 FILLER_3_1322
*22147 FILLER_3_1325
*22148 FILLER_3_1328
*22149 FILLER_3_1331
*22150 FILLER_3_1334
*22151 FILLER_3_1337
*22152 FILLER_3_134
*22153 FILLER_3_1340
*22154 FILLER_3_1343
*22155 FILLER_3_1345
*22156 FILLER_3_1348
*22157 FILLER_3_1351
*22158 FILLER_3_1354
*22159 FILLER_3_1357
*22160 FILLER_3_1360
*22161 FILLER_3_1363
*22162 FILLER_3_137
*22163 FILLER_3_140
*22164 FILLER_3_143
*22165 FILLER_3_146
*22166 FILLER_3_149
*22167 FILLER_3_15
*22168 FILLER_3_152
*22169 FILLER_3_155
*22170 FILLER_3_158
*22171 FILLER_3_161
*22172 FILLER_3_164
*22173 FILLER_3_167
*22174 FILLER_3_169
*22175 FILLER_3_172
*22176 FILLER_3_175
*22177 FILLER_3_178
*22178 FILLER_3_18
*22179 FILLER_3_181
*22180 FILLER_3_184
*22181 FILLER_3_187
*22182 FILLER_3_190
*22183 FILLER_3_193
*22184 FILLER_3_196
*22185 FILLER_3_199
*22186 FILLER_3_202
*22187 FILLER_3_205
*22188 FILLER_3_208
*22189 FILLER_3_21
*22190 FILLER_3_211
*22191 FILLER_3_214
*22192 FILLER_3_217
*22193 FILLER_3_220
*22194 FILLER_3_223
*22195 FILLER_3_225
*22196 FILLER_3_228
*22197 FILLER_3_231
*22198 FILLER_3_234
*22199 FILLER_3_237
*22200 FILLER_3_24
*22201 FILLER_3_240
*22202 FILLER_3_243
*22203 FILLER_3_246
*22204 FILLER_3_249
*22205 FILLER_3_252
*22206 FILLER_3_255
*22207 FILLER_3_258
*22208 FILLER_3_261
*22209 FILLER_3_264
*22210 FILLER_3_267
*22211 FILLER_3_27
*22212 FILLER_3_270
*22213 FILLER_3_273
*22214 FILLER_3_276
*22215 FILLER_3_279
*22216 FILLER_3_281
*22217 FILLER_3_284
*22218 FILLER_3_287
*22219 FILLER_3_290
*22220 FILLER_3_293
*22221 FILLER_3_296
*22222 FILLER_3_299
*22223 FILLER_3_3
*22224 FILLER_3_30
*22225 FILLER_3_302
*22226 FILLER_3_305
*22227 FILLER_3_308
*22228 FILLER_3_311
*22229 FILLER_3_314
*22230 FILLER_3_317
*22231 FILLER_3_320
*22232 FILLER_3_323
*22233 FILLER_3_326
*22234 FILLER_3_329
*22235 FILLER_3_33
*22236 FILLER_3_332
*22237 FILLER_3_335
*22238 FILLER_3_337
*22239 FILLER_3_340
*22240 FILLER_3_343
*22241 FILLER_3_346
*22242 FILLER_3_349
*22243 FILLER_3_352
*22244 FILLER_3_355
*22245 FILLER_3_358
*22246 FILLER_3_36
*22247 FILLER_3_361
*22248 FILLER_3_364
*22249 FILLER_3_367
*22250 FILLER_3_370
*22251 FILLER_3_373
*22252 FILLER_3_376
*22253 FILLER_3_379
*22254 FILLER_3_382
*22255 FILLER_3_385
*22256 FILLER_3_388
*22257 FILLER_3_39
*22258 FILLER_3_391
*22259 FILLER_3_393
*22260 FILLER_3_396
*22261 FILLER_3_399
*22262 FILLER_3_402
*22263 FILLER_3_405
*22264 FILLER_3_408
*22265 FILLER_3_411
*22266 FILLER_3_414
*22267 FILLER_3_417
*22268 FILLER_3_42
*22269 FILLER_3_420
*22270 FILLER_3_423
*22271 FILLER_3_426
*22272 FILLER_3_429
*22273 FILLER_3_432
*22274 FILLER_3_435
*22275 FILLER_3_438
*22276 FILLER_3_441
*22277 FILLER_3_444
*22278 FILLER_3_447
*22279 FILLER_3_449
*22280 FILLER_3_45
*22281 FILLER_3_452
*22282 FILLER_3_455
*22283 FILLER_3_458
*22284 FILLER_3_461
*22285 FILLER_3_464
*22286 FILLER_3_467
*22287 FILLER_3_470
*22288 FILLER_3_473
*22289 FILLER_3_476
*22290 FILLER_3_479
*22291 FILLER_3_48
*22292 FILLER_3_482
*22293 FILLER_3_485
*22294 FILLER_3_488
*22295 FILLER_3_491
*22296 FILLER_3_494
*22297 FILLER_3_497
*22298 FILLER_3_500
*22299 FILLER_3_503
*22300 FILLER_3_505
*22301 FILLER_3_508
*22302 FILLER_3_51
*22303 FILLER_3_511
*22304 FILLER_3_514
*22305 FILLER_3_517
*22306 FILLER_3_520
*22307 FILLER_3_523
*22308 FILLER_3_526
*22309 FILLER_3_529
*22310 FILLER_3_532
*22311 FILLER_3_535
*22312 FILLER_3_538
*22313 FILLER_3_54
*22314 FILLER_3_541
*22315 FILLER_3_544
*22316 FILLER_3_547
*22317 FILLER_3_550
*22318 FILLER_3_553
*22319 FILLER_3_556
*22320 FILLER_3_559
*22321 FILLER_3_561
*22322 FILLER_3_564
*22323 FILLER_3_567
*22324 FILLER_3_57
*22325 FILLER_3_570
*22326 FILLER_3_573
*22327 FILLER_3_576
*22328 FILLER_3_579
*22329 FILLER_3_582
*22330 FILLER_3_585
*22331 FILLER_3_588
*22332 FILLER_3_591
*22333 FILLER_3_594
*22334 FILLER_3_597
*22335 FILLER_3_6
*22336 FILLER_3_60
*22337 FILLER_3_600
*22338 FILLER_3_603
*22339 FILLER_3_606
*22340 FILLER_3_609
*22341 FILLER_3_612
*22342 FILLER_3_615
*22343 FILLER_3_617
*22344 FILLER_3_620
*22345 FILLER_3_623
*22346 FILLER_3_626
*22347 FILLER_3_629
*22348 FILLER_3_63
*22349 FILLER_3_632
*22350 FILLER_3_635
*22351 FILLER_3_638
*22352 FILLER_3_641
*22353 FILLER_3_644
*22354 FILLER_3_647
*22355 FILLER_3_650
*22356 FILLER_3_653
*22357 FILLER_3_656
*22358 FILLER_3_659
*22359 FILLER_3_66
*22360 FILLER_3_662
*22361 FILLER_3_665
*22362 FILLER_3_668
*22363 FILLER_3_671
*22364 FILLER_3_673
*22365 FILLER_3_676
*22366 FILLER_3_679
*22367 FILLER_3_682
*22368 FILLER_3_685
*22369 FILLER_3_688
*22370 FILLER_3_69
*22371 FILLER_3_691
*22372 FILLER_3_694
*22373 FILLER_3_697
*22374 FILLER_3_700
*22375 FILLER_3_703
*22376 FILLER_3_706
*22377 FILLER_3_709
*22378 FILLER_3_712
*22379 FILLER_3_715
*22380 FILLER_3_718
*22381 FILLER_3_72
*22382 FILLER_3_721
*22383 FILLER_3_724
*22384 FILLER_3_727
*22385 FILLER_3_729
*22386 FILLER_3_732
*22387 FILLER_3_735
*22388 FILLER_3_738
*22389 FILLER_3_741
*22390 FILLER_3_744
*22391 FILLER_3_747
*22392 FILLER_3_75
*22393 FILLER_3_750
*22394 FILLER_3_753
*22395 FILLER_3_756
*22396 FILLER_3_759
*22397 FILLER_3_762
*22398 FILLER_3_765
*22399 FILLER_3_768
*22400 FILLER_3_771
*22401 FILLER_3_774
*22402 FILLER_3_777
*22403 FILLER_3_78
*22404 FILLER_3_780
*22405 FILLER_3_783
*22406 FILLER_3_785
*22407 FILLER_3_788
*22408 FILLER_3_791
*22409 FILLER_3_794
*22410 FILLER_3_797
*22411 FILLER_3_800
*22412 FILLER_3_803
*22413 FILLER_3_806
*22414 FILLER_3_809
*22415 FILLER_3_81
*22416 FILLER_3_812
*22417 FILLER_3_815
*22418 FILLER_3_818
*22419 FILLER_3_821
*22420 FILLER_3_824
*22421 FILLER_3_827
*22422 FILLER_3_830
*22423 FILLER_3_833
*22424 FILLER_3_836
*22425 FILLER_3_839
*22426 FILLER_3_84
*22427 FILLER_3_841
*22428 FILLER_3_844
*22429 FILLER_3_847
*22430 FILLER_3_850
*22431 FILLER_3_853
*22432 FILLER_3_856
*22433 FILLER_3_859
*22434 FILLER_3_862
*22435 FILLER_3_865
*22436 FILLER_3_868
*22437 FILLER_3_87
*22438 FILLER_3_871
*22439 FILLER_3_874
*22440 FILLER_3_877
*22441 FILLER_3_880
*22442 FILLER_3_883
*22443 FILLER_3_886
*22444 FILLER_3_889
*22445 FILLER_3_892
*22446 FILLER_3_895
*22447 FILLER_3_897
*22448 FILLER_3_9
*22449 FILLER_3_90
*22450 FILLER_3_900
*22451 FILLER_3_903
*22452 FILLER_3_906
*22453 FILLER_3_909
*22454 FILLER_3_912
*22455 FILLER_3_915
*22456 FILLER_3_918
*22457 FILLER_3_921
*22458 FILLER_3_924
*22459 FILLER_3_927
*22460 FILLER_3_93
*22461 FILLER_3_930
*22462 FILLER_3_933
*22463 FILLER_3_936
*22464 FILLER_3_939
*22465 FILLER_3_942
*22466 FILLER_3_945
*22467 FILLER_3_948
*22468 FILLER_3_951
*22469 FILLER_3_953
*22470 FILLER_3_956
*22471 FILLER_3_959
*22472 FILLER_3_96
*22473 FILLER_3_962
*22474 FILLER_3_965
*22475 FILLER_3_968
*22476 FILLER_3_971
*22477 FILLER_3_974
*22478 FILLER_3_977
*22479 FILLER_3_980
*22480 FILLER_3_983
*22481 FILLER_3_986
*22482 FILLER_3_989
*22483 FILLER_3_99
*22484 FILLER_3_992
*22485 FILLER_3_995
*22486 FILLER_3_998
*22487 FILLER_40_100
*22488 FILLER_40_103
*22489 FILLER_40_106
*22490 FILLER_40_109
*22491 FILLER_40_12
*22492 FILLER_40_1208
*22493 FILLER_40_1211
*22494 FILLER_40_1214
*22495 FILLER_40_1217
*22496 FILLER_40_1220
*22497 FILLER_40_1223
*22498 FILLER_40_1226
*22499 FILLER_40_1229
*22500 FILLER_40_1232
*22501 FILLER_40_1234
*22502 FILLER_40_1237
*22503 FILLER_40_1240
*22504 FILLER_40_1243
*22505 FILLER_40_1246
*22506 FILLER_40_1249
*22507 FILLER_40_1252
*22508 FILLER_40_1255
*22509 FILLER_40_1258
*22510 FILLER_40_1261
*22511 FILLER_40_1264
*22512 FILLER_40_1267
*22513 FILLER_40_1270
*22514 FILLER_40_1273
*22515 FILLER_40_1276
*22516 FILLER_40_1279
*22517 FILLER_40_1282
*22518 FILLER_40_1285
*22519 FILLER_40_1288
*22520 FILLER_40_1290
*22521 FILLER_40_1293
*22522 FILLER_40_1296
*22523 FILLER_40_1299
*22524 FILLER_40_1302
*22525 FILLER_40_1305
*22526 FILLER_40_1308
*22527 FILLER_40_1311
*22528 FILLER_40_1314
*22529 FILLER_40_1317
*22530 FILLER_40_1320
*22531 FILLER_40_1323
*22532 FILLER_40_1326
*22533 FILLER_40_1329
*22534 FILLER_40_1332
*22535 FILLER_40_1335
*22536 FILLER_40_1338
*22537 FILLER_40_1341
*22538 FILLER_40_1344
*22539 FILLER_40_1346
*22540 FILLER_40_1349
*22541 FILLER_40_1352
*22542 FILLER_40_1355
*22543 FILLER_40_1358
*22544 FILLER_40_1361
*22545 FILLER_40_15
*22546 FILLER_40_18
*22547 FILLER_40_21
*22548 FILLER_40_24
*22549 FILLER_40_27
*22550 FILLER_40_29
*22551 FILLER_40_3
*22552 FILLER_40_32
*22553 FILLER_40_35
*22554 FILLER_40_38
*22555 FILLER_40_41
*22556 FILLER_40_44
*22557 FILLER_40_47
*22558 FILLER_40_50
*22559 FILLER_40_53
*22560 FILLER_40_56
*22561 FILLER_40_59
*22562 FILLER_40_6
*22563 FILLER_40_62
*22564 FILLER_40_65
*22565 FILLER_40_68
*22566 FILLER_40_71
*22567 FILLER_40_74
*22568 FILLER_40_77
*22569 FILLER_40_80
*22570 FILLER_40_83
*22571 FILLER_40_85
*22572 FILLER_40_88
*22573 FILLER_40_9
*22574 FILLER_40_91
*22575 FILLER_40_94
*22576 FILLER_40_97
*22577 FILLER_41_102
*22578 FILLER_41_105
*22579 FILLER_41_108
*22580 FILLER_41_111
*22581 FILLER_41_113
*22582 FILLER_41_12
*22583 FILLER_41_1208
*22584 FILLER_41_1211
*22585 FILLER_41_1214
*22586 FILLER_41_1217
*22587 FILLER_41_1220
*22588 FILLER_41_1223
*22589 FILLER_41_1226
*22590 FILLER_41_1229
*22591 FILLER_41_1232
*22592 FILLER_41_1235
*22593 FILLER_41_1238
*22594 FILLER_41_1241
*22595 FILLER_41_1244
*22596 FILLER_41_1247
*22597 FILLER_41_1250
*22598 FILLER_41_1253
*22599 FILLER_41_1256
*22600 FILLER_41_1259
*22601 FILLER_41_1262
*22602 FILLER_41_1265
*22603 FILLER_41_1268
*22604 FILLER_41_1271
*22605 FILLER_41_1274
*22606 FILLER_41_1277
*22607 FILLER_41_1280
*22608 FILLER_41_1283
*22609 FILLER_41_1286
*22610 FILLER_41_1289
*22611 FILLER_41_1292
*22612 FILLER_41_1295
*22613 FILLER_41_1298
*22614 FILLER_41_1301
*22615 FILLER_41_1304
*22616 FILLER_41_1307
*22617 FILLER_41_1310
*22618 FILLER_41_1313
*22619 FILLER_41_1316
*22620 FILLER_41_1318
*22621 FILLER_41_1321
*22622 FILLER_41_1324
*22623 FILLER_41_1327
*22624 FILLER_41_1330
*22625 FILLER_41_1333
*22626 FILLER_41_1336
*22627 FILLER_41_1339
*22628 FILLER_41_1342
*22629 FILLER_41_1345
*22630 FILLER_41_1348
*22631 FILLER_41_1351
*22632 FILLER_41_1354
*22633 FILLER_41_1357
*22634 FILLER_41_1360
*22635 FILLER_41_1363
*22636 FILLER_41_15
*22637 FILLER_41_18
*22638 FILLER_41_21
*22639 FILLER_41_24
*22640 FILLER_41_27
*22641 FILLER_41_3
*22642 FILLER_41_30
*22643 FILLER_41_33
*22644 FILLER_41_36
*22645 FILLER_41_39
*22646 FILLER_41_42
*22647 FILLER_41_45
*22648 FILLER_41_48
*22649 FILLER_41_51
*22650 FILLER_41_54
*22651 FILLER_41_57
*22652 FILLER_41_6
*22653 FILLER_41_60
*22654 FILLER_41_63
*22655 FILLER_41_66
*22656 FILLER_41_69
*22657 FILLER_41_72
*22658 FILLER_41_75
*22659 FILLER_41_78
*22660 FILLER_41_81
*22661 FILLER_41_84
*22662 FILLER_41_87
*22663 FILLER_41_9
*22664 FILLER_41_90
*22665 FILLER_41_93
*22666 FILLER_41_96
*22667 FILLER_41_99
*22668 FILLER_42_100
*22669 FILLER_42_103
*22670 FILLER_42_106
*22671 FILLER_42_109
*22672 FILLER_42_112
*22673 FILLER_42_12
*22674 FILLER_42_1208
*22675 FILLER_42_1211
*22676 FILLER_42_1214
*22677 FILLER_42_1217
*22678 FILLER_42_1220
*22679 FILLER_42_1223
*22680 FILLER_42_1226
*22681 FILLER_42_1229
*22682 FILLER_42_1232
*22683 FILLER_42_1234
*22684 FILLER_42_1237
*22685 FILLER_42_1240
*22686 FILLER_42_1243
*22687 FILLER_42_1246
*22688 FILLER_42_1249
*22689 FILLER_42_1252
*22690 FILLER_42_1255
*22691 FILLER_42_1258
*22692 FILLER_42_1261
*22693 FILLER_42_1264
*22694 FILLER_42_1267
*22695 FILLER_42_1270
*22696 FILLER_42_1273
*22697 FILLER_42_1276
*22698 FILLER_42_1279
*22699 FILLER_42_1282
*22700 FILLER_42_1285
*22701 FILLER_42_1288
*22702 FILLER_42_1290
*22703 FILLER_42_1293
*22704 FILLER_42_1296
*22705 FILLER_42_1299
*22706 FILLER_42_1302
*22707 FILLER_42_1305
*22708 FILLER_42_1308
*22709 FILLER_42_1311
*22710 FILLER_42_1314
*22711 FILLER_42_1317
*22712 FILLER_42_1320
*22713 FILLER_42_1323
*22714 FILLER_42_1326
*22715 FILLER_42_1329
*22716 FILLER_42_1332
*22717 FILLER_42_1335
*22718 FILLER_42_1338
*22719 FILLER_42_1341
*22720 FILLER_42_1344
*22721 FILLER_42_1346
*22722 FILLER_42_1349
*22723 FILLER_42_1352
*22724 FILLER_42_1355
*22725 FILLER_42_1358
*22726 FILLER_42_1361
*22727 FILLER_42_15
*22728 FILLER_42_18
*22729 FILLER_42_21
*22730 FILLER_42_24
*22731 FILLER_42_27
*22732 FILLER_42_29
*22733 FILLER_42_3
*22734 FILLER_42_32
*22735 FILLER_42_35
*22736 FILLER_42_38
*22737 FILLER_42_41
*22738 FILLER_42_44
*22739 FILLER_42_47
*22740 FILLER_42_50
*22741 FILLER_42_53
*22742 FILLER_42_56
*22743 FILLER_42_59
*22744 FILLER_42_6
*22745 FILLER_42_62
*22746 FILLER_42_65
*22747 FILLER_42_68
*22748 FILLER_42_71
*22749 FILLER_42_74
*22750 FILLER_42_77
*22751 FILLER_42_80
*22752 FILLER_42_83
*22753 FILLER_42_85
*22754 FILLER_42_88
*22755 FILLER_42_9
*22756 FILLER_42_91
*22757 FILLER_42_94
*22758 FILLER_42_97
*22759 FILLER_43_102
*22760 FILLER_43_105
*22761 FILLER_43_108
*22762 FILLER_43_111
*22763 FILLER_43_113
*22764 FILLER_43_12
*22765 FILLER_43_1208
*22766 FILLER_43_1211
*22767 FILLER_43_1214
*22768 FILLER_43_1217
*22769 FILLER_43_1220
*22770 FILLER_43_1223
*22771 FILLER_43_1226
*22772 FILLER_43_1229
*22773 FILLER_43_1232
*22774 FILLER_43_1235
*22775 FILLER_43_1238
*22776 FILLER_43_1241
*22777 FILLER_43_1244
*22778 FILLER_43_1247
*22779 FILLER_43_1250
*22780 FILLER_43_1253
*22781 FILLER_43_1256
*22782 FILLER_43_1259
*22783 FILLER_43_1262
*22784 FILLER_43_1265
*22785 FILLER_43_1268
*22786 FILLER_43_1271
*22787 FILLER_43_1274
*22788 FILLER_43_1277
*22789 FILLER_43_1280
*22790 FILLER_43_1283
*22791 FILLER_43_1286
*22792 FILLER_43_1289
*22793 FILLER_43_1292
*22794 FILLER_43_1295
*22795 FILLER_43_1298
*22796 FILLER_43_1301
*22797 FILLER_43_1304
*22798 FILLER_43_1307
*22799 FILLER_43_1310
*22800 FILLER_43_1313
*22801 FILLER_43_1316
*22802 FILLER_43_1318
*22803 FILLER_43_1321
*22804 FILLER_43_1324
*22805 FILLER_43_1327
*22806 FILLER_43_1330
*22807 FILLER_43_1333
*22808 FILLER_43_1336
*22809 FILLER_43_1339
*22810 FILLER_43_1342
*22811 FILLER_43_1345
*22812 FILLER_43_1348
*22813 FILLER_43_1351
*22814 FILLER_43_1354
*22815 FILLER_43_1357
*22816 FILLER_43_1360
*22817 FILLER_43_1363
*22818 FILLER_43_15
*22819 FILLER_43_18
*22820 FILLER_43_21
*22821 FILLER_43_24
*22822 FILLER_43_27
*22823 FILLER_43_3
*22824 FILLER_43_30
*22825 FILLER_43_33
*22826 FILLER_43_36
*22827 FILLER_43_39
*22828 FILLER_43_42
*22829 FILLER_43_45
*22830 FILLER_43_48
*22831 FILLER_43_51
*22832 FILLER_43_54
*22833 FILLER_43_57
*22834 FILLER_43_6
*22835 FILLER_43_60
*22836 FILLER_43_63
*22837 FILLER_43_66
*22838 FILLER_43_69
*22839 FILLER_43_72
*22840 FILLER_43_75
*22841 FILLER_43_78
*22842 FILLER_43_81
*22843 FILLER_43_84
*22844 FILLER_43_87
*22845 FILLER_43_9
*22846 FILLER_43_90
*22847 FILLER_43_93
*22848 FILLER_43_96
*22849 FILLER_43_99
*22850 FILLER_44_100
*22851 FILLER_44_103
*22852 FILLER_44_106
*22853 FILLER_44_109
*22854 FILLER_44_112
*22855 FILLER_44_12
*22856 FILLER_44_1208
*22857 FILLER_44_1211
*22858 FILLER_44_1214
*22859 FILLER_44_1217
*22860 FILLER_44_1220
*22861 FILLER_44_1223
*22862 FILLER_44_1226
*22863 FILLER_44_1229
*22864 FILLER_44_1232
*22865 FILLER_44_1234
*22866 FILLER_44_1237
*22867 FILLER_44_1240
*22868 FILLER_44_1243
*22869 FILLER_44_1246
*22870 FILLER_44_1249
*22871 FILLER_44_1252
*22872 FILLER_44_1255
*22873 FILLER_44_1258
*22874 FILLER_44_1261
*22875 FILLER_44_1264
*22876 FILLER_44_1267
*22877 FILLER_44_1270
*22878 FILLER_44_1273
*22879 FILLER_44_1276
*22880 FILLER_44_1279
*22881 FILLER_44_1282
*22882 FILLER_44_1285
*22883 FILLER_44_1288
*22884 FILLER_44_1290
*22885 FILLER_44_1293
*22886 FILLER_44_1296
*22887 FILLER_44_1299
*22888 FILLER_44_1302
*22889 FILLER_44_1305
*22890 FILLER_44_1308
*22891 FILLER_44_1311
*22892 FILLER_44_1314
*22893 FILLER_44_1317
*22894 FILLER_44_1320
*22895 FILLER_44_1323
*22896 FILLER_44_1326
*22897 FILLER_44_1329
*22898 FILLER_44_1332
*22899 FILLER_44_1335
*22900 FILLER_44_1338
*22901 FILLER_44_1341
*22902 FILLER_44_1344
*22903 FILLER_44_1346
*22904 FILLER_44_1349
*22905 FILLER_44_1352
*22906 FILLER_44_1355
*22907 FILLER_44_1358
*22908 FILLER_44_1361
*22909 FILLER_44_15
*22910 FILLER_44_18
*22911 FILLER_44_21
*22912 FILLER_44_24
*22913 FILLER_44_27
*22914 FILLER_44_29
*22915 FILLER_44_3
*22916 FILLER_44_32
*22917 FILLER_44_35
*22918 FILLER_44_38
*22919 FILLER_44_41
*22920 FILLER_44_44
*22921 FILLER_44_47
*22922 FILLER_44_50
*22923 FILLER_44_53
*22924 FILLER_44_56
*22925 FILLER_44_59
*22926 FILLER_44_6
*22927 FILLER_44_62
*22928 FILLER_44_65
*22929 FILLER_44_68
*22930 FILLER_44_71
*22931 FILLER_44_74
*22932 FILLER_44_77
*22933 FILLER_44_80
*22934 FILLER_44_83
*22935 FILLER_44_85
*22936 FILLER_44_88
*22937 FILLER_44_9
*22938 FILLER_44_91
*22939 FILLER_44_94
*22940 FILLER_44_97
*22941 FILLER_45_102
*22942 FILLER_45_105
*22943 FILLER_45_108
*22944 FILLER_45_111
*22945 FILLER_45_113
*22946 FILLER_45_12
*22947 FILLER_45_1208
*22948 FILLER_45_1211
*22949 FILLER_45_1214
*22950 FILLER_45_1217
*22951 FILLER_45_1220
*22952 FILLER_45_1223
*22953 FILLER_45_1226
*22954 FILLER_45_1229
*22955 FILLER_45_1232
*22956 FILLER_45_1235
*22957 FILLER_45_1238
*22958 FILLER_45_1241
*22959 FILLER_45_1244
*22960 FILLER_45_1247
*22961 FILLER_45_1250
*22962 FILLER_45_1253
*22963 FILLER_45_1256
*22964 FILLER_45_1259
*22965 FILLER_45_1262
*22966 FILLER_45_1265
*22967 FILLER_45_1268
*22968 FILLER_45_1271
*22969 FILLER_45_1274
*22970 FILLER_45_1277
*22971 FILLER_45_1280
*22972 FILLER_45_1283
*22973 FILLER_45_1286
*22974 FILLER_45_1289
*22975 FILLER_45_1292
*22976 FILLER_45_1295
*22977 FILLER_45_1298
*22978 FILLER_45_1301
*22979 FILLER_45_1304
*22980 FILLER_45_1307
*22981 FILLER_45_1310
*22982 FILLER_45_1313
*22983 FILLER_45_1316
*22984 FILLER_45_1318
*22985 FILLER_45_1321
*22986 FILLER_45_1324
*22987 FILLER_45_1327
*22988 FILLER_45_1330
*22989 FILLER_45_1333
*22990 FILLER_45_1336
*22991 FILLER_45_1339
*22992 FILLER_45_1342
*22993 FILLER_45_1345
*22994 FILLER_45_1348
*22995 FILLER_45_1351
*22996 FILLER_45_1354
*22997 FILLER_45_1357
*22998 FILLER_45_1360
*22999 FILLER_45_1363
*23000 FILLER_45_15
*23001 FILLER_45_18
*23002 FILLER_45_21
*23003 FILLER_45_24
*23004 FILLER_45_27
*23005 FILLER_45_3
*23006 FILLER_45_30
*23007 FILLER_45_33
*23008 FILLER_45_36
*23009 FILLER_45_39
*23010 FILLER_45_42
*23011 FILLER_45_45
*23012 FILLER_45_48
*23013 FILLER_45_51
*23014 FILLER_45_54
*23015 FILLER_45_57
*23016 FILLER_45_6
*23017 FILLER_45_60
*23018 FILLER_45_63
*23019 FILLER_45_66
*23020 FILLER_45_69
*23021 FILLER_45_72
*23022 FILLER_45_75
*23023 FILLER_45_78
*23024 FILLER_45_81
*23025 FILLER_45_84
*23026 FILLER_45_87
*23027 FILLER_45_9
*23028 FILLER_45_90
*23029 FILLER_45_93
*23030 FILLER_45_96
*23031 FILLER_45_99
*23032 FILLER_46_100
*23033 FILLER_46_103
*23034 FILLER_46_106
*23035 FILLER_46_109
*23036 FILLER_46_112
*23037 FILLER_46_12
*23038 FILLER_46_1211
*23039 FILLER_46_1214
*23040 FILLER_46_1217
*23041 FILLER_46_1220
*23042 FILLER_46_1223
*23043 FILLER_46_1226
*23044 FILLER_46_1229
*23045 FILLER_46_1232
*23046 FILLER_46_1234
*23047 FILLER_46_1237
*23048 FILLER_46_1240
*23049 FILLER_46_1243
*23050 FILLER_46_1246
*23051 FILLER_46_1249
*23052 FILLER_46_1252
*23053 FILLER_46_1255
*23054 FILLER_46_1258
*23055 FILLER_46_1261
*23056 FILLER_46_1264
*23057 FILLER_46_1267
*23058 FILLER_46_1270
*23059 FILLER_46_1273
*23060 FILLER_46_1276
*23061 FILLER_46_1279
*23062 FILLER_46_1282
*23063 FILLER_46_1285
*23064 FILLER_46_1288
*23065 FILLER_46_1290
*23066 FILLER_46_1293
*23067 FILLER_46_1296
*23068 FILLER_46_1299
*23069 FILLER_46_1302
*23070 FILLER_46_1305
*23071 FILLER_46_1308
*23072 FILLER_46_1311
*23073 FILLER_46_1314
*23074 FILLER_46_1317
*23075 FILLER_46_1320
*23076 FILLER_46_1323
*23077 FILLER_46_1326
*23078 FILLER_46_1329
*23079 FILLER_46_1332
*23080 FILLER_46_1335
*23081 FILLER_46_1338
*23082 FILLER_46_1341
*23083 FILLER_46_1344
*23084 FILLER_46_1346
*23085 FILLER_46_1349
*23086 FILLER_46_1352
*23087 FILLER_46_1355
*23088 FILLER_46_1358
*23089 FILLER_46_1361
*23090 FILLER_46_15
*23091 FILLER_46_18
*23092 FILLER_46_21
*23093 FILLER_46_24
*23094 FILLER_46_27
*23095 FILLER_46_29
*23096 FILLER_46_3
*23097 FILLER_46_32
*23098 FILLER_46_35
*23099 FILLER_46_38
*23100 FILLER_46_41
*23101 FILLER_46_44
*23102 FILLER_46_47
*23103 FILLER_46_50
*23104 FILLER_46_53
*23105 FILLER_46_56
*23106 FILLER_46_59
*23107 FILLER_46_6
*23108 FILLER_46_62
*23109 FILLER_46_65
*23110 FILLER_46_68
*23111 FILLER_46_71
*23112 FILLER_46_74
*23113 FILLER_46_77
*23114 FILLER_46_80
*23115 FILLER_46_83
*23116 FILLER_46_85
*23117 FILLER_46_88
*23118 FILLER_46_9
*23119 FILLER_46_91
*23120 FILLER_46_94
*23121 FILLER_46_97
*23122 FILLER_47_102
*23123 FILLER_47_105
*23124 FILLER_47_108
*23125 FILLER_47_111
*23126 FILLER_47_113
*23127 FILLER_47_12
*23128 FILLER_47_1208
*23129 FILLER_47_1211
*23130 FILLER_47_1214
*23131 FILLER_47_1217
*23132 FILLER_47_1220
*23133 FILLER_47_1223
*23134 FILLER_47_1226
*23135 FILLER_47_1229
*23136 FILLER_47_1232
*23137 FILLER_47_1235
*23138 FILLER_47_1238
*23139 FILLER_47_1241
*23140 FILLER_47_1244
*23141 FILLER_47_1247
*23142 FILLER_47_1250
*23143 FILLER_47_1253
*23144 FILLER_47_1256
*23145 FILLER_47_1259
*23146 FILLER_47_1262
*23147 FILLER_47_1265
*23148 FILLER_47_1268
*23149 FILLER_47_1271
*23150 FILLER_47_1274
*23151 FILLER_47_1277
*23152 FILLER_47_1280
*23153 FILLER_47_1283
*23154 FILLER_47_1286
*23155 FILLER_47_1289
*23156 FILLER_47_1292
*23157 FILLER_47_1295
*23158 FILLER_47_1298
*23159 FILLER_47_1301
*23160 FILLER_47_1304
*23161 FILLER_47_1307
*23162 FILLER_47_1310
*23163 FILLER_47_1313
*23164 FILLER_47_1316
*23165 FILLER_47_1318
*23166 FILLER_47_1321
*23167 FILLER_47_1324
*23168 FILLER_47_1327
*23169 FILLER_47_1330
*23170 FILLER_47_1333
*23171 FILLER_47_1336
*23172 FILLER_47_1339
*23173 FILLER_47_1342
*23174 FILLER_47_1345
*23175 FILLER_47_1348
*23176 FILLER_47_1351
*23177 FILLER_47_1354
*23178 FILLER_47_1357
*23179 FILLER_47_1360
*23180 FILLER_47_1363
*23181 FILLER_47_15
*23182 FILLER_47_18
*23183 FILLER_47_21
*23184 FILLER_47_24
*23185 FILLER_47_27
*23186 FILLER_47_3
*23187 FILLER_47_30
*23188 FILLER_47_33
*23189 FILLER_47_36
*23190 FILLER_47_39
*23191 FILLER_47_42
*23192 FILLER_47_45
*23193 FILLER_47_48
*23194 FILLER_47_51
*23195 FILLER_47_54
*23196 FILLER_47_57
*23197 FILLER_47_6
*23198 FILLER_47_60
*23199 FILLER_47_63
*23200 FILLER_47_66
*23201 FILLER_47_69
*23202 FILLER_47_72
*23203 FILLER_47_75
*23204 FILLER_47_78
*23205 FILLER_47_81
*23206 FILLER_47_84
*23207 FILLER_47_87
*23208 FILLER_47_9
*23209 FILLER_47_90
*23210 FILLER_47_93
*23211 FILLER_47_96
*23212 FILLER_47_99
*23213 FILLER_48_100
*23214 FILLER_48_103
*23215 FILLER_48_106
*23216 FILLER_48_109
*23217 FILLER_48_112
*23218 FILLER_48_12
*23219 FILLER_48_1208
*23220 FILLER_48_1211
*23221 FILLER_48_1214
*23222 FILLER_48_1217
*23223 FILLER_48_1220
*23224 FILLER_48_1223
*23225 FILLER_48_1226
*23226 FILLER_48_1229
*23227 FILLER_48_1232
*23228 FILLER_48_1234
*23229 FILLER_48_1237
*23230 FILLER_48_1240
*23231 FILLER_48_1243
*23232 FILLER_48_1246
*23233 FILLER_48_1249
*23234 FILLER_48_1252
*23235 FILLER_48_1255
*23236 FILLER_48_1258
*23237 FILLER_48_1261
*23238 FILLER_48_1264
*23239 FILLER_48_1267
*23240 FILLER_48_1270
*23241 FILLER_48_1273
*23242 FILLER_48_1276
*23243 FILLER_48_1279
*23244 FILLER_48_1282
*23245 FILLER_48_1285
*23246 FILLER_48_1288
*23247 FILLER_48_1290
*23248 FILLER_48_1293
*23249 FILLER_48_1296
*23250 FILLER_48_1299
*23251 FILLER_48_1302
*23252 FILLER_48_1305
*23253 FILLER_48_1308
*23254 FILLER_48_1311
*23255 FILLER_48_1314
*23256 FILLER_48_1317
*23257 FILLER_48_1320
*23258 FILLER_48_1323
*23259 FILLER_48_1326
*23260 FILLER_48_1329
*23261 FILLER_48_1332
*23262 FILLER_48_1335
*23263 FILLER_48_1338
*23264 FILLER_48_1341
*23265 FILLER_48_1344
*23266 FILLER_48_1346
*23267 FILLER_48_1349
*23268 FILLER_48_1352
*23269 FILLER_48_1355
*23270 FILLER_48_1358
*23271 FILLER_48_1361
*23272 FILLER_48_15
*23273 FILLER_48_18
*23274 FILLER_48_21
*23275 FILLER_48_24
*23276 FILLER_48_27
*23277 FILLER_48_29
*23278 FILLER_48_3
*23279 FILLER_48_32
*23280 FILLER_48_35
*23281 FILLER_48_38
*23282 FILLER_48_41
*23283 FILLER_48_44
*23284 FILLER_48_47
*23285 FILLER_48_50
*23286 FILLER_48_53
*23287 FILLER_48_56
*23288 FILLER_48_59
*23289 FILLER_48_6
*23290 FILLER_48_62
*23291 FILLER_48_65
*23292 FILLER_48_68
*23293 FILLER_48_71
*23294 FILLER_48_74
*23295 FILLER_48_77
*23296 FILLER_48_80
*23297 FILLER_48_83
*23298 FILLER_48_85
*23299 FILLER_48_88
*23300 FILLER_48_9
*23301 FILLER_48_91
*23302 FILLER_48_94
*23303 FILLER_48_97
*23304 FILLER_49_102
*23305 FILLER_49_105
*23306 FILLER_49_108
*23307 FILLER_49_111
*23308 FILLER_49_113
*23309 FILLER_49_12
*23310 FILLER_49_1211
*23311 FILLER_49_1214
*23312 FILLER_49_1217
*23313 FILLER_49_1220
*23314 FILLER_49_1223
*23315 FILLER_49_1226
*23316 FILLER_49_1229
*23317 FILLER_49_1232
*23318 FILLER_49_1235
*23319 FILLER_49_1238
*23320 FILLER_49_1241
*23321 FILLER_49_1244
*23322 FILLER_49_1247
*23323 FILLER_49_1250
*23324 FILLER_49_1253
*23325 FILLER_49_1256
*23326 FILLER_49_1259
*23327 FILLER_49_1262
*23328 FILLER_49_1265
*23329 FILLER_49_1268
*23330 FILLER_49_1271
*23331 FILLER_49_1274
*23332 FILLER_49_1277
*23333 FILLER_49_1280
*23334 FILLER_49_1283
*23335 FILLER_49_1286
*23336 FILLER_49_1289
*23337 FILLER_49_1292
*23338 FILLER_49_1295
*23339 FILLER_49_1298
*23340 FILLER_49_1301
*23341 FILLER_49_1304
*23342 FILLER_49_1307
*23343 FILLER_49_1310
*23344 FILLER_49_1313
*23345 FILLER_49_1316
*23346 FILLER_49_1318
*23347 FILLER_49_1321
*23348 FILLER_49_1324
*23349 FILLER_49_1327
*23350 FILLER_49_1330
*23351 FILLER_49_1333
*23352 FILLER_49_1336
*23353 FILLER_49_1339
*23354 FILLER_49_1342
*23355 FILLER_49_1345
*23356 FILLER_49_1348
*23357 FILLER_49_1351
*23358 FILLER_49_1354
*23359 FILLER_49_1357
*23360 FILLER_49_1360
*23361 FILLER_49_1363
*23362 FILLER_49_15
*23363 FILLER_49_18
*23364 FILLER_49_21
*23365 FILLER_49_24
*23366 FILLER_49_27
*23367 FILLER_49_3
*23368 FILLER_49_30
*23369 FILLER_49_33
*23370 FILLER_49_36
*23371 FILLER_49_39
*23372 FILLER_49_42
*23373 FILLER_49_45
*23374 FILLER_49_48
*23375 FILLER_49_51
*23376 FILLER_49_54
*23377 FILLER_49_57
*23378 FILLER_49_6
*23379 FILLER_49_60
*23380 FILLER_49_63
*23381 FILLER_49_66
*23382 FILLER_49_69
*23383 FILLER_49_72
*23384 FILLER_49_75
*23385 FILLER_49_78
*23386 FILLER_49_81
*23387 FILLER_49_84
*23388 FILLER_49_87
*23389 FILLER_49_9
*23390 FILLER_49_90
*23391 FILLER_49_93
*23392 FILLER_49_96
*23393 FILLER_49_99
*23394 FILLER_4_100
*23395 FILLER_4_1002
*23396 FILLER_4_1005
*23397 FILLER_4_1008
*23398 FILLER_4_1011
*23399 FILLER_4_1014
*23400 FILLER_4_1017
*23401 FILLER_4_1020
*23402 FILLER_4_1023
*23403 FILLER_4_1026
*23404 FILLER_4_1029
*23405 FILLER_4_103
*23406 FILLER_4_1032
*23407 FILLER_4_1035
*23408 FILLER_4_1037
*23409 FILLER_4_1040
*23410 FILLER_4_1043
*23411 FILLER_4_1046
*23412 FILLER_4_1049
*23413 FILLER_4_1052
*23414 FILLER_4_1055
*23415 FILLER_4_1058
*23416 FILLER_4_106
*23417 FILLER_4_1061
*23418 FILLER_4_1064
*23419 FILLER_4_1067
*23420 FILLER_4_1070
*23421 FILLER_4_1073
*23422 FILLER_4_1076
*23423 FILLER_4_1079
*23424 FILLER_4_1082
*23425 FILLER_4_1085
*23426 FILLER_4_1088
*23427 FILLER_4_109
*23428 FILLER_4_1091
*23429 FILLER_4_1093
*23430 FILLER_4_1096
*23431 FILLER_4_1099
*23432 FILLER_4_1102
*23433 FILLER_4_1105
*23434 FILLER_4_1108
*23435 FILLER_4_1111
*23436 FILLER_4_1114
*23437 FILLER_4_1117
*23438 FILLER_4_112
*23439 FILLER_4_1120
*23440 FILLER_4_1123
*23441 FILLER_4_1126
*23442 FILLER_4_1129
*23443 FILLER_4_1132
*23444 FILLER_4_1135
*23445 FILLER_4_1138
*23446 FILLER_4_1141
*23447 FILLER_4_1144
*23448 FILLER_4_1147
*23449 FILLER_4_1149
*23450 FILLER_4_115
*23451 FILLER_4_1152
*23452 FILLER_4_1155
*23453 FILLER_4_1158
*23454 FILLER_4_1161
*23455 FILLER_4_1164
*23456 FILLER_4_1167
*23457 FILLER_4_1170
*23458 FILLER_4_1173
*23459 FILLER_4_1176
*23460 FILLER_4_1179
*23461 FILLER_4_118
*23462 FILLER_4_1182
*23463 FILLER_4_1185
*23464 FILLER_4_1188
*23465 FILLER_4_1191
*23466 FILLER_4_1194
*23467 FILLER_4_1197
*23468 FILLER_4_12
*23469 FILLER_4_1200
*23470 FILLER_4_1203
*23471 FILLER_4_1205
*23472 FILLER_4_1208
*23473 FILLER_4_121
*23474 FILLER_4_1211
*23475 FILLER_4_1214
*23476 FILLER_4_1217
*23477 FILLER_4_1220
*23478 FILLER_4_1223
*23479 FILLER_4_1226
*23480 FILLER_4_1229
*23481 FILLER_4_1232
*23482 FILLER_4_1235
*23483 FILLER_4_1238
*23484 FILLER_4_124
*23485 FILLER_4_1241
*23486 FILLER_4_1244
*23487 FILLER_4_1247
*23488 FILLER_4_1250
*23489 FILLER_4_1253
*23490 FILLER_4_1256
*23491 FILLER_4_1259
*23492 FILLER_4_1261
*23493 FILLER_4_1264
*23494 FILLER_4_1267
*23495 FILLER_4_127
*23496 FILLER_4_1270
*23497 FILLER_4_1273
*23498 FILLER_4_1276
*23499 FILLER_4_1279
*23500 FILLER_4_1282
*23501 FILLER_4_1285
*23502 FILLER_4_1288
*23503 FILLER_4_1291
*23504 FILLER_4_1294
*23505 FILLER_4_1297
*23506 FILLER_4_130
*23507 FILLER_4_1300
*23508 FILLER_4_1303
*23509 FILLER_4_1306
*23510 FILLER_4_1309
*23511 FILLER_4_1312
*23512 FILLER_4_1315
*23513 FILLER_4_1317
*23514 FILLER_4_1320
*23515 FILLER_4_1323
*23516 FILLER_4_1326
*23517 FILLER_4_1329
*23518 FILLER_4_133
*23519 FILLER_4_1332
*23520 FILLER_4_1335
*23521 FILLER_4_1338
*23522 FILLER_4_1341
*23523 FILLER_4_1344
*23524 FILLER_4_1347
*23525 FILLER_4_1350
*23526 FILLER_4_1353
*23527 FILLER_4_1356
*23528 FILLER_4_1359
*23529 FILLER_4_136
*23530 FILLER_4_1362
*23531 FILLER_4_139
*23532 FILLER_4_141
*23533 FILLER_4_144
*23534 FILLER_4_147
*23535 FILLER_4_15
*23536 FILLER_4_150
*23537 FILLER_4_153
*23538 FILLER_4_156
*23539 FILLER_4_159
*23540 FILLER_4_162
*23541 FILLER_4_165
*23542 FILLER_4_168
*23543 FILLER_4_171
*23544 FILLER_4_174
*23545 FILLER_4_177
*23546 FILLER_4_18
*23547 FILLER_4_180
*23548 FILLER_4_183
*23549 FILLER_4_186
*23550 FILLER_4_189
*23551 FILLER_4_192
*23552 FILLER_4_195
*23553 FILLER_4_197
*23554 FILLER_4_200
*23555 FILLER_4_203
*23556 FILLER_4_206
*23557 FILLER_4_209
*23558 FILLER_4_21
*23559 FILLER_4_212
*23560 FILLER_4_215
*23561 FILLER_4_218
*23562 FILLER_4_221
*23563 FILLER_4_224
*23564 FILLER_4_227
*23565 FILLER_4_230
*23566 FILLER_4_233
*23567 FILLER_4_236
*23568 FILLER_4_239
*23569 FILLER_4_24
*23570 FILLER_4_242
*23571 FILLER_4_245
*23572 FILLER_4_248
*23573 FILLER_4_251
*23574 FILLER_4_253
*23575 FILLER_4_256
*23576 FILLER_4_259
*23577 FILLER_4_262
*23578 FILLER_4_265
*23579 FILLER_4_268
*23580 FILLER_4_27
*23581 FILLER_4_271
*23582 FILLER_4_274
*23583 FILLER_4_277
*23584 FILLER_4_280
*23585 FILLER_4_283
*23586 FILLER_4_286
*23587 FILLER_4_289
*23588 FILLER_4_29
*23589 FILLER_4_292
*23590 FILLER_4_295
*23591 FILLER_4_298
*23592 FILLER_4_3
*23593 FILLER_4_301
*23594 FILLER_4_304
*23595 FILLER_4_307
*23596 FILLER_4_309
*23597 FILLER_4_312
*23598 FILLER_4_315
*23599 FILLER_4_318
*23600 FILLER_4_32
*23601 FILLER_4_321
*23602 FILLER_4_324
*23603 FILLER_4_327
*23604 FILLER_4_330
*23605 FILLER_4_333
*23606 FILLER_4_336
*23607 FILLER_4_339
*23608 FILLER_4_342
*23609 FILLER_4_345
*23610 FILLER_4_348
*23611 FILLER_4_35
*23612 FILLER_4_351
*23613 FILLER_4_354
*23614 FILLER_4_357
*23615 FILLER_4_360
*23616 FILLER_4_363
*23617 FILLER_4_365
*23618 FILLER_4_368
*23619 FILLER_4_371
*23620 FILLER_4_374
*23621 FILLER_4_377
*23622 FILLER_4_38
*23623 FILLER_4_380
*23624 FILLER_4_383
*23625 FILLER_4_386
*23626 FILLER_4_389
*23627 FILLER_4_392
*23628 FILLER_4_395
*23629 FILLER_4_398
*23630 FILLER_4_401
*23631 FILLER_4_404
*23632 FILLER_4_407
*23633 FILLER_4_41
*23634 FILLER_4_410
*23635 FILLER_4_413
*23636 FILLER_4_416
*23637 FILLER_4_419
*23638 FILLER_4_421
*23639 FILLER_4_424
*23640 FILLER_4_427
*23641 FILLER_4_430
*23642 FILLER_4_433
*23643 FILLER_4_436
*23644 FILLER_4_439
*23645 FILLER_4_44
*23646 FILLER_4_442
*23647 FILLER_4_445
*23648 FILLER_4_448
*23649 FILLER_4_451
*23650 FILLER_4_454
*23651 FILLER_4_457
*23652 FILLER_4_460
*23653 FILLER_4_463
*23654 FILLER_4_466
*23655 FILLER_4_469
*23656 FILLER_4_47
*23657 FILLER_4_472
*23658 FILLER_4_475
*23659 FILLER_4_477
*23660 FILLER_4_480
*23661 FILLER_4_483
*23662 FILLER_4_486
*23663 FILLER_4_489
*23664 FILLER_4_492
*23665 FILLER_4_495
*23666 FILLER_4_498
*23667 FILLER_4_50
*23668 FILLER_4_501
*23669 FILLER_4_504
*23670 FILLER_4_507
*23671 FILLER_4_510
*23672 FILLER_4_513
*23673 FILLER_4_516
*23674 FILLER_4_519
*23675 FILLER_4_522
*23676 FILLER_4_525
*23677 FILLER_4_528
*23678 FILLER_4_53
*23679 FILLER_4_531
*23680 FILLER_4_533
*23681 FILLER_4_536
*23682 FILLER_4_539
*23683 FILLER_4_542
*23684 FILLER_4_545
*23685 FILLER_4_548
*23686 FILLER_4_551
*23687 FILLER_4_554
*23688 FILLER_4_557
*23689 FILLER_4_56
*23690 FILLER_4_560
*23691 FILLER_4_563
*23692 FILLER_4_566
*23693 FILLER_4_569
*23694 FILLER_4_572
*23695 FILLER_4_575
*23696 FILLER_4_578
*23697 FILLER_4_581
*23698 FILLER_4_584
*23699 FILLER_4_587
*23700 FILLER_4_589
*23701 FILLER_4_59
*23702 FILLER_4_592
*23703 FILLER_4_595
*23704 FILLER_4_598
*23705 FILLER_4_6
*23706 FILLER_4_601
*23707 FILLER_4_604
*23708 FILLER_4_607
*23709 FILLER_4_610
*23710 FILLER_4_613
*23711 FILLER_4_616
*23712 FILLER_4_619
*23713 FILLER_4_62
*23714 FILLER_4_622
*23715 FILLER_4_625
*23716 FILLER_4_628
*23717 FILLER_4_631
*23718 FILLER_4_634
*23719 FILLER_4_637
*23720 FILLER_4_640
*23721 FILLER_4_643
*23722 FILLER_4_645
*23723 FILLER_4_648
*23724 FILLER_4_65
*23725 FILLER_4_651
*23726 FILLER_4_654
*23727 FILLER_4_657
*23728 FILLER_4_660
*23729 FILLER_4_663
*23730 FILLER_4_666
*23731 FILLER_4_669
*23732 FILLER_4_672
*23733 FILLER_4_675
*23734 FILLER_4_678
*23735 FILLER_4_68
*23736 FILLER_4_681
*23737 FILLER_4_684
*23738 FILLER_4_687
*23739 FILLER_4_690
*23740 FILLER_4_693
*23741 FILLER_4_696
*23742 FILLER_4_699
*23743 FILLER_4_701
*23744 FILLER_4_704
*23745 FILLER_4_707
*23746 FILLER_4_71
*23747 FILLER_4_710
*23748 FILLER_4_713
*23749 FILLER_4_716
*23750 FILLER_4_719
*23751 FILLER_4_722
*23752 FILLER_4_725
*23753 FILLER_4_728
*23754 FILLER_4_731
*23755 FILLER_4_734
*23756 FILLER_4_737
*23757 FILLER_4_74
*23758 FILLER_4_740
*23759 FILLER_4_743
*23760 FILLER_4_746
*23761 FILLER_4_749
*23762 FILLER_4_752
*23763 FILLER_4_755
*23764 FILLER_4_757
*23765 FILLER_4_760
*23766 FILLER_4_763
*23767 FILLER_4_766
*23768 FILLER_4_769
*23769 FILLER_4_77
*23770 FILLER_4_772
*23771 FILLER_4_775
*23772 FILLER_4_778
*23773 FILLER_4_781
*23774 FILLER_4_784
*23775 FILLER_4_787
*23776 FILLER_4_790
*23777 FILLER_4_793
*23778 FILLER_4_796
*23779 FILLER_4_799
*23780 FILLER_4_80
*23781 FILLER_4_802
*23782 FILLER_4_805
*23783 FILLER_4_808
*23784 FILLER_4_811
*23785 FILLER_4_813
*23786 FILLER_4_816
*23787 FILLER_4_819
*23788 FILLER_4_822
*23789 FILLER_4_825
*23790 FILLER_4_828
*23791 FILLER_4_83
*23792 FILLER_4_831
*23793 FILLER_4_834
*23794 FILLER_4_837
*23795 FILLER_4_840
*23796 FILLER_4_843
*23797 FILLER_4_846
*23798 FILLER_4_849
*23799 FILLER_4_85
*23800 FILLER_4_852
*23801 FILLER_4_855
*23802 FILLER_4_858
*23803 FILLER_4_861
*23804 FILLER_4_864
*23805 FILLER_4_867
*23806 FILLER_4_869
*23807 FILLER_4_872
*23808 FILLER_4_875
*23809 FILLER_4_878
*23810 FILLER_4_88
*23811 FILLER_4_881
*23812 FILLER_4_884
*23813 FILLER_4_887
*23814 FILLER_4_890
*23815 FILLER_4_893
*23816 FILLER_4_896
*23817 FILLER_4_899
*23818 FILLER_4_9
*23819 FILLER_4_902
*23820 FILLER_4_905
*23821 FILLER_4_908
*23822 FILLER_4_91
*23823 FILLER_4_911
*23824 FILLER_4_914
*23825 FILLER_4_917
*23826 FILLER_4_920
*23827 FILLER_4_923
*23828 FILLER_4_925
*23829 FILLER_4_928
*23830 FILLER_4_931
*23831 FILLER_4_934
*23832 FILLER_4_937
*23833 FILLER_4_94
*23834 FILLER_4_940
*23835 FILLER_4_943
*23836 FILLER_4_946
*23837 FILLER_4_949
*23838 FILLER_4_952
*23839 FILLER_4_955
*23840 FILLER_4_958
*23841 FILLER_4_961
*23842 FILLER_4_964
*23843 FILLER_4_967
*23844 FILLER_4_97
*23845 FILLER_4_970
*23846 FILLER_4_973
*23847 FILLER_4_976
*23848 FILLER_4_979
*23849 FILLER_4_981
*23850 FILLER_4_984
*23851 FILLER_4_987
*23852 FILLER_4_990
*23853 FILLER_4_993
*23854 FILLER_4_996
*23855 FILLER_4_999
*23856 FILLER_50_100
*23857 FILLER_50_103
*23858 FILLER_50_106
*23859 FILLER_50_109
*23860 FILLER_50_112
*23861 FILLER_50_12
*23862 FILLER_50_1208
*23863 FILLER_50_1211
*23864 FILLER_50_1214
*23865 FILLER_50_1217
*23866 FILLER_50_1220
*23867 FILLER_50_1223
*23868 FILLER_50_1226
*23869 FILLER_50_1229
*23870 FILLER_50_1232
*23871 FILLER_50_1234
*23872 FILLER_50_1237
*23873 FILLER_50_1240
*23874 FILLER_50_1243
*23875 FILLER_50_1246
*23876 FILLER_50_1249
*23877 FILLER_50_1252
*23878 FILLER_50_1255
*23879 FILLER_50_1258
*23880 FILLER_50_1261
*23881 FILLER_50_1264
*23882 FILLER_50_1267
*23883 FILLER_50_1270
*23884 FILLER_50_1273
*23885 FILLER_50_1276
*23886 FILLER_50_1279
*23887 FILLER_50_1282
*23888 FILLER_50_1285
*23889 FILLER_50_1288
*23890 FILLER_50_1290
*23891 FILLER_50_1293
*23892 FILLER_50_1296
*23893 FILLER_50_1299
*23894 FILLER_50_1302
*23895 FILLER_50_1305
*23896 FILLER_50_1308
*23897 FILLER_50_1311
*23898 FILLER_50_1314
*23899 FILLER_50_1317
*23900 FILLER_50_1320
*23901 FILLER_50_1323
*23902 FILLER_50_1326
*23903 FILLER_50_1329
*23904 FILLER_50_1332
*23905 FILLER_50_1335
*23906 FILLER_50_1338
*23907 FILLER_50_1341
*23908 FILLER_50_1344
*23909 FILLER_50_1346
*23910 FILLER_50_1349
*23911 FILLER_50_1352
*23912 FILLER_50_1355
*23913 FILLER_50_1358
*23914 FILLER_50_1361
*23915 FILLER_50_15
*23916 FILLER_50_18
*23917 FILLER_50_21
*23918 FILLER_50_24
*23919 FILLER_50_27
*23920 FILLER_50_29
*23921 FILLER_50_3
*23922 FILLER_50_32
*23923 FILLER_50_35
*23924 FILLER_50_38
*23925 FILLER_50_41
*23926 FILLER_50_44
*23927 FILLER_50_47
*23928 FILLER_50_50
*23929 FILLER_50_53
*23930 FILLER_50_56
*23931 FILLER_50_59
*23932 FILLER_50_6
*23933 FILLER_50_62
*23934 FILLER_50_65
*23935 FILLER_50_68
*23936 FILLER_50_71
*23937 FILLER_50_74
*23938 FILLER_50_77
*23939 FILLER_50_80
*23940 FILLER_50_83
*23941 FILLER_50_85
*23942 FILLER_50_88
*23943 FILLER_50_9
*23944 FILLER_50_91
*23945 FILLER_50_94
*23946 FILLER_50_97
*23947 FILLER_51_102
*23948 FILLER_51_105
*23949 FILLER_51_108
*23950 FILLER_51_111
*23951 FILLER_51_113
*23952 FILLER_51_12
*23953 FILLER_51_1208
*23954 FILLER_51_1211
*23955 FILLER_51_1214
*23956 FILLER_51_1217
*23957 FILLER_51_1220
*23958 FILLER_51_1223
*23959 FILLER_51_1226
*23960 FILLER_51_1229
*23961 FILLER_51_1232
*23962 FILLER_51_1235
*23963 FILLER_51_1238
*23964 FILLER_51_1241
*23965 FILLER_51_1244
*23966 FILLER_51_1247
*23967 FILLER_51_1250
*23968 FILLER_51_1253
*23969 FILLER_51_1256
*23970 FILLER_51_1259
*23971 FILLER_51_1262
*23972 FILLER_51_1265
*23973 FILLER_51_1268
*23974 FILLER_51_1271
*23975 FILLER_51_1274
*23976 FILLER_51_1277
*23977 FILLER_51_1280
*23978 FILLER_51_1283
*23979 FILLER_51_1286
*23980 FILLER_51_1289
*23981 FILLER_51_1292
*23982 FILLER_51_1295
*23983 FILLER_51_1298
*23984 FILLER_51_1301
*23985 FILLER_51_1304
*23986 FILLER_51_1307
*23987 FILLER_51_1310
*23988 FILLER_51_1313
*23989 FILLER_51_1316
*23990 FILLER_51_1318
*23991 FILLER_51_1321
*23992 FILLER_51_1324
*23993 FILLER_51_1327
*23994 FILLER_51_1330
*23995 FILLER_51_1333
*23996 FILLER_51_1336
*23997 FILLER_51_1339
*23998 FILLER_51_1342
*23999 FILLER_51_1345
*24000 FILLER_51_1348
*24001 FILLER_51_1351
*24002 FILLER_51_1354
*24003 FILLER_51_1357
*24004 FILLER_51_1360
*24005 FILLER_51_1363
*24006 FILLER_51_15
*24007 FILLER_51_18
*24008 FILLER_51_21
*24009 FILLER_51_24
*24010 FILLER_51_27
*24011 FILLER_51_3
*24012 FILLER_51_30
*24013 FILLER_51_33
*24014 FILLER_51_36
*24015 FILLER_51_39
*24016 FILLER_51_42
*24017 FILLER_51_45
*24018 FILLER_51_48
*24019 FILLER_51_51
*24020 FILLER_51_54
*24021 FILLER_51_57
*24022 FILLER_51_6
*24023 FILLER_51_60
*24024 FILLER_51_63
*24025 FILLER_51_66
*24026 FILLER_51_69
*24027 FILLER_51_72
*24028 FILLER_51_75
*24029 FILLER_51_78
*24030 FILLER_51_81
*24031 FILLER_51_84
*24032 FILLER_51_87
*24033 FILLER_51_9
*24034 FILLER_51_90
*24035 FILLER_51_93
*24036 FILLER_51_96
*24037 FILLER_51_99
*24038 FILLER_52_100
*24039 FILLER_52_103
*24040 FILLER_52_106
*24041 FILLER_52_109
*24042 FILLER_52_112
*24043 FILLER_52_12
*24044 FILLER_52_1211
*24045 FILLER_52_1214
*24046 FILLER_52_1217
*24047 FILLER_52_1220
*24048 FILLER_52_1223
*24049 FILLER_52_1226
*24050 FILLER_52_1229
*24051 FILLER_52_1232
*24052 FILLER_52_1234
*24053 FILLER_52_1237
*24054 FILLER_52_1240
*24055 FILLER_52_1243
*24056 FILLER_52_1246
*24057 FILLER_52_1249
*24058 FILLER_52_1252
*24059 FILLER_52_1255
*24060 FILLER_52_1258
*24061 FILLER_52_1261
*24062 FILLER_52_1264
*24063 FILLER_52_1267
*24064 FILLER_52_1270
*24065 FILLER_52_1273
*24066 FILLER_52_1276
*24067 FILLER_52_1279
*24068 FILLER_52_1282
*24069 FILLER_52_1285
*24070 FILLER_52_1288
*24071 FILLER_52_1290
*24072 FILLER_52_1293
*24073 FILLER_52_1296
*24074 FILLER_52_1299
*24075 FILLER_52_1302
*24076 FILLER_52_1305
*24077 FILLER_52_1308
*24078 FILLER_52_1311
*24079 FILLER_52_1314
*24080 FILLER_52_1317
*24081 FILLER_52_1320
*24082 FILLER_52_1323
*24083 FILLER_52_1326
*24084 FILLER_52_1329
*24085 FILLER_52_1332
*24086 FILLER_52_1335
*24087 FILLER_52_1338
*24088 FILLER_52_1341
*24089 FILLER_52_1344
*24090 FILLER_52_1346
*24091 FILLER_52_1349
*24092 FILLER_52_1352
*24093 FILLER_52_1355
*24094 FILLER_52_1358
*24095 FILLER_52_1361
*24096 FILLER_52_17
*24097 FILLER_52_20
*24098 FILLER_52_23
*24099 FILLER_52_26
*24100 FILLER_52_29
*24101 FILLER_52_3
*24102 FILLER_52_32
*24103 FILLER_52_35
*24104 FILLER_52_38
*24105 FILLER_52_41
*24106 FILLER_52_44
*24107 FILLER_52_47
*24108 FILLER_52_50
*24109 FILLER_52_53
*24110 FILLER_52_56
*24111 FILLER_52_59
*24112 FILLER_52_6
*24113 FILLER_52_62
*24114 FILLER_52_65
*24115 FILLER_52_68
*24116 FILLER_52_71
*24117 FILLER_52_74
*24118 FILLER_52_77
*24119 FILLER_52_80
*24120 FILLER_52_83
*24121 FILLER_52_85
*24122 FILLER_52_88
*24123 FILLER_52_9
*24124 FILLER_52_91
*24125 FILLER_52_94
*24126 FILLER_52_97
*24127 FILLER_53_102
*24128 FILLER_53_105
*24129 FILLER_53_108
*24130 FILLER_53_111
*24131 FILLER_53_113
*24132 FILLER_53_12
*24133 FILLER_53_1208
*24134 FILLER_53_1211
*24135 FILLER_53_1214
*24136 FILLER_53_1217
*24137 FILLER_53_1220
*24138 FILLER_53_1223
*24139 FILLER_53_1226
*24140 FILLER_53_1229
*24141 FILLER_53_1232
*24142 FILLER_53_1235
*24143 FILLER_53_1238
*24144 FILLER_53_1241
*24145 FILLER_53_1244
*24146 FILLER_53_1247
*24147 FILLER_53_1250
*24148 FILLER_53_1253
*24149 FILLER_53_1256
*24150 FILLER_53_1259
*24151 FILLER_53_1262
*24152 FILLER_53_1265
*24153 FILLER_53_1268
*24154 FILLER_53_1271
*24155 FILLER_53_1274
*24156 FILLER_53_1277
*24157 FILLER_53_1280
*24158 FILLER_53_1283
*24159 FILLER_53_1286
*24160 FILLER_53_1289
*24161 FILLER_53_1292
*24162 FILLER_53_1295
*24163 FILLER_53_1298
*24164 FILLER_53_1301
*24165 FILLER_53_1304
*24166 FILLER_53_1307
*24167 FILLER_53_1310
*24168 FILLER_53_1313
*24169 FILLER_53_1316
*24170 FILLER_53_1318
*24171 FILLER_53_1321
*24172 FILLER_53_1324
*24173 FILLER_53_1327
*24174 FILLER_53_1330
*24175 FILLER_53_1333
*24176 FILLER_53_1336
*24177 FILLER_53_1339
*24178 FILLER_53_1342
*24179 FILLER_53_1345
*24180 FILLER_53_1348
*24181 FILLER_53_1351
*24182 FILLER_53_1354
*24183 FILLER_53_1357
*24184 FILLER_53_1360
*24185 FILLER_53_1363
*24186 FILLER_53_15
*24187 FILLER_53_18
*24188 FILLER_53_21
*24189 FILLER_53_24
*24190 FILLER_53_27
*24191 FILLER_53_3
*24192 FILLER_53_30
*24193 FILLER_53_33
*24194 FILLER_53_36
*24195 FILLER_53_39
*24196 FILLER_53_42
*24197 FILLER_53_45
*24198 FILLER_53_48
*24199 FILLER_53_51
*24200 FILLER_53_54
*24201 FILLER_53_57
*24202 FILLER_53_6
*24203 FILLER_53_60
*24204 FILLER_53_63
*24205 FILLER_53_66
*24206 FILLER_53_69
*24207 FILLER_53_72
*24208 FILLER_53_75
*24209 FILLER_53_78
*24210 FILLER_53_81
*24211 FILLER_53_84
*24212 FILLER_53_87
*24213 FILLER_53_9
*24214 FILLER_53_90
*24215 FILLER_53_93
*24216 FILLER_53_96
*24217 FILLER_53_99
*24218 FILLER_54_100
*24219 FILLER_54_103
*24220 FILLER_54_106
*24221 FILLER_54_109
*24222 FILLER_54_112
*24223 FILLER_54_12
*24224 FILLER_54_1208
*24225 FILLER_54_1211
*24226 FILLER_54_1214
*24227 FILLER_54_1217
*24228 FILLER_54_1220
*24229 FILLER_54_1223
*24230 FILLER_54_1226
*24231 FILLER_54_1229
*24232 FILLER_54_1232
*24233 FILLER_54_1234
*24234 FILLER_54_1237
*24235 FILLER_54_1240
*24236 FILLER_54_1243
*24237 FILLER_54_1246
*24238 FILLER_54_1249
*24239 FILLER_54_1252
*24240 FILLER_54_1255
*24241 FILLER_54_1258
*24242 FILLER_54_1261
*24243 FILLER_54_1264
*24244 FILLER_54_1267
*24245 FILLER_54_1270
*24246 FILLER_54_1273
*24247 FILLER_54_1276
*24248 FILLER_54_1279
*24249 FILLER_54_1282
*24250 FILLER_54_1285
*24251 FILLER_54_1288
*24252 FILLER_54_1290
*24253 FILLER_54_1293
*24254 FILLER_54_1296
*24255 FILLER_54_1299
*24256 FILLER_54_1302
*24257 FILLER_54_1305
*24258 FILLER_54_1308
*24259 FILLER_54_1311
*24260 FILLER_54_1314
*24261 FILLER_54_1317
*24262 FILLER_54_1320
*24263 FILLER_54_1323
*24264 FILLER_54_1326
*24265 FILLER_54_1329
*24266 FILLER_54_1332
*24267 FILLER_54_1335
*24268 FILLER_54_1338
*24269 FILLER_54_1341
*24270 FILLER_54_1344
*24271 FILLER_54_1346
*24272 FILLER_54_1349
*24273 FILLER_54_1352
*24274 FILLER_54_1355
*24275 FILLER_54_1358
*24276 FILLER_54_1361
*24277 FILLER_54_15
*24278 FILLER_54_18
*24279 FILLER_54_21
*24280 FILLER_54_24
*24281 FILLER_54_27
*24282 FILLER_54_29
*24283 FILLER_54_3
*24284 FILLER_54_32
*24285 FILLER_54_35
*24286 FILLER_54_38
*24287 FILLER_54_41
*24288 FILLER_54_44
*24289 FILLER_54_47
*24290 FILLER_54_50
*24291 FILLER_54_53
*24292 FILLER_54_56
*24293 FILLER_54_59
*24294 FILLER_54_6
*24295 FILLER_54_62
*24296 FILLER_54_65
*24297 FILLER_54_68
*24298 FILLER_54_71
*24299 FILLER_54_74
*24300 FILLER_54_77
*24301 FILLER_54_80
*24302 FILLER_54_83
*24303 FILLER_54_85
*24304 FILLER_54_88
*24305 FILLER_54_9
*24306 FILLER_54_91
*24307 FILLER_54_94
*24308 FILLER_54_97
*24309 FILLER_55_102
*24310 FILLER_55_105
*24311 FILLER_55_108
*24312 FILLER_55_111
*24313 FILLER_55_113
*24314 FILLER_55_12
*24315 FILLER_55_1208
*24316 FILLER_55_1211
*24317 FILLER_55_1214
*24318 FILLER_55_1217
*24319 FILLER_55_1220
*24320 FILLER_55_1223
*24321 FILLER_55_1226
*24322 FILLER_55_1229
*24323 FILLER_55_1232
*24324 FILLER_55_1235
*24325 FILLER_55_1238
*24326 FILLER_55_1241
*24327 FILLER_55_1244
*24328 FILLER_55_1247
*24329 FILLER_55_1250
*24330 FILLER_55_1253
*24331 FILLER_55_1256
*24332 FILLER_55_1259
*24333 FILLER_55_1262
*24334 FILLER_55_1265
*24335 FILLER_55_1268
*24336 FILLER_55_1271
*24337 FILLER_55_1274
*24338 FILLER_55_1277
*24339 FILLER_55_1280
*24340 FILLER_55_1283
*24341 FILLER_55_1286
*24342 FILLER_55_1289
*24343 FILLER_55_1292
*24344 FILLER_55_1295
*24345 FILLER_55_1298
*24346 FILLER_55_1301
*24347 FILLER_55_1304
*24348 FILLER_55_1307
*24349 FILLER_55_1310
*24350 FILLER_55_1313
*24351 FILLER_55_1316
*24352 FILLER_55_1318
*24353 FILLER_55_1321
*24354 FILLER_55_1324
*24355 FILLER_55_1327
*24356 FILLER_55_1330
*24357 FILLER_55_1333
*24358 FILLER_55_1336
*24359 FILLER_55_1339
*24360 FILLER_55_1342
*24361 FILLER_55_1345
*24362 FILLER_55_1348
*24363 FILLER_55_1351
*24364 FILLER_55_1354
*24365 FILLER_55_1357
*24366 FILLER_55_1360
*24367 FILLER_55_1363
*24368 FILLER_55_15
*24369 FILLER_55_18
*24370 FILLER_55_21
*24371 FILLER_55_24
*24372 FILLER_55_27
*24373 FILLER_55_3
*24374 FILLER_55_30
*24375 FILLER_55_33
*24376 FILLER_55_36
*24377 FILLER_55_39
*24378 FILLER_55_42
*24379 FILLER_55_45
*24380 FILLER_55_48
*24381 FILLER_55_51
*24382 FILLER_55_54
*24383 FILLER_55_57
*24384 FILLER_55_6
*24385 FILLER_55_60
*24386 FILLER_55_63
*24387 FILLER_55_66
*24388 FILLER_55_69
*24389 FILLER_55_72
*24390 FILLER_55_75
*24391 FILLER_55_78
*24392 FILLER_55_81
*24393 FILLER_55_84
*24394 FILLER_55_87
*24395 FILLER_55_9
*24396 FILLER_55_90
*24397 FILLER_55_93
*24398 FILLER_55_96
*24399 FILLER_55_99
*24400 FILLER_56_100
*24401 FILLER_56_103
*24402 FILLER_56_106
*24403 FILLER_56_109
*24404 FILLER_56_112
*24405 FILLER_56_12
*24406 FILLER_56_1208
*24407 FILLER_56_1211
*24408 FILLER_56_1214
*24409 FILLER_56_1217
*24410 FILLER_56_1220
*24411 FILLER_56_1223
*24412 FILLER_56_1226
*24413 FILLER_56_1229
*24414 FILLER_56_1232
*24415 FILLER_56_1234
*24416 FILLER_56_1237
*24417 FILLER_56_1240
*24418 FILLER_56_1243
*24419 FILLER_56_1246
*24420 FILLER_56_1249
*24421 FILLER_56_1252
*24422 FILLER_56_1255
*24423 FILLER_56_1258
*24424 FILLER_56_1261
*24425 FILLER_56_1264
*24426 FILLER_56_1267
*24427 FILLER_56_1270
*24428 FILLER_56_1273
*24429 FILLER_56_1276
*24430 FILLER_56_1279
*24431 FILLER_56_1282
*24432 FILLER_56_1285
*24433 FILLER_56_1288
*24434 FILLER_56_1290
*24435 FILLER_56_1293
*24436 FILLER_56_1296
*24437 FILLER_56_1299
*24438 FILLER_56_1302
*24439 FILLER_56_1305
*24440 FILLER_56_1308
*24441 FILLER_56_1311
*24442 FILLER_56_1314
*24443 FILLER_56_1317
*24444 FILLER_56_1320
*24445 FILLER_56_1323
*24446 FILLER_56_1326
*24447 FILLER_56_1329
*24448 FILLER_56_1332
*24449 FILLER_56_1335
*24450 FILLER_56_1338
*24451 FILLER_56_1341
*24452 FILLER_56_1344
*24453 FILLER_56_1346
*24454 FILLER_56_1349
*24455 FILLER_56_1352
*24456 FILLER_56_1355
*24457 FILLER_56_1358
*24458 FILLER_56_1361
*24459 FILLER_56_15
*24460 FILLER_56_18
*24461 FILLER_56_21
*24462 FILLER_56_24
*24463 FILLER_56_27
*24464 FILLER_56_29
*24465 FILLER_56_3
*24466 FILLER_56_32
*24467 FILLER_56_35
*24468 FILLER_56_38
*24469 FILLER_56_41
*24470 FILLER_56_44
*24471 FILLER_56_47
*24472 FILLER_56_50
*24473 FILLER_56_53
*24474 FILLER_56_56
*24475 FILLER_56_59
*24476 FILLER_56_6
*24477 FILLER_56_62
*24478 FILLER_56_65
*24479 FILLER_56_68
*24480 FILLER_56_71
*24481 FILLER_56_74
*24482 FILLER_56_77
*24483 FILLER_56_80
*24484 FILLER_56_83
*24485 FILLER_56_85
*24486 FILLER_56_88
*24487 FILLER_56_9
*24488 FILLER_56_91
*24489 FILLER_56_94
*24490 FILLER_56_97
*24491 FILLER_57_102
*24492 FILLER_57_105
*24493 FILLER_57_108
*24494 FILLER_57_111
*24495 FILLER_57_113
*24496 FILLER_57_12
*24497 FILLER_57_1208
*24498 FILLER_57_1211
*24499 FILLER_57_1214
*24500 FILLER_57_1217
*24501 FILLER_57_1220
*24502 FILLER_57_1223
*24503 FILLER_57_1226
*24504 FILLER_57_1229
*24505 FILLER_57_1232
*24506 FILLER_57_1235
*24507 FILLER_57_1238
*24508 FILLER_57_1241
*24509 FILLER_57_1244
*24510 FILLER_57_1247
*24511 FILLER_57_1250
*24512 FILLER_57_1253
*24513 FILLER_57_1256
*24514 FILLER_57_1259
*24515 FILLER_57_1262
*24516 FILLER_57_1265
*24517 FILLER_57_1268
*24518 FILLER_57_1271
*24519 FILLER_57_1274
*24520 FILLER_57_1277
*24521 FILLER_57_1280
*24522 FILLER_57_1283
*24523 FILLER_57_1286
*24524 FILLER_57_1289
*24525 FILLER_57_1292
*24526 FILLER_57_1295
*24527 FILLER_57_1298
*24528 FILLER_57_1301
*24529 FILLER_57_1304
*24530 FILLER_57_1307
*24531 FILLER_57_1310
*24532 FILLER_57_1313
*24533 FILLER_57_1316
*24534 FILLER_57_1318
*24535 FILLER_57_1321
*24536 FILLER_57_1324
*24537 FILLER_57_1327
*24538 FILLER_57_1330
*24539 FILLER_57_1333
*24540 FILLER_57_1336
*24541 FILLER_57_1339
*24542 FILLER_57_1342
*24543 FILLER_57_1345
*24544 FILLER_57_1348
*24545 FILLER_57_1351
*24546 FILLER_57_1354
*24547 FILLER_57_1357
*24548 FILLER_57_1360
*24549 FILLER_57_1363
*24550 FILLER_57_15
*24551 FILLER_57_18
*24552 FILLER_57_21
*24553 FILLER_57_24
*24554 FILLER_57_27
*24555 FILLER_57_3
*24556 FILLER_57_30
*24557 FILLER_57_33
*24558 FILLER_57_36
*24559 FILLER_57_39
*24560 FILLER_57_42
*24561 FILLER_57_45
*24562 FILLER_57_48
*24563 FILLER_57_51
*24564 FILLER_57_54
*24565 FILLER_57_57
*24566 FILLER_57_6
*24567 FILLER_57_60
*24568 FILLER_57_63
*24569 FILLER_57_66
*24570 FILLER_57_69
*24571 FILLER_57_72
*24572 FILLER_57_75
*24573 FILLER_57_78
*24574 FILLER_57_81
*24575 FILLER_57_84
*24576 FILLER_57_87
*24577 FILLER_57_9
*24578 FILLER_57_90
*24579 FILLER_57_93
*24580 FILLER_57_96
*24581 FILLER_57_99
*24582 FILLER_58_100
*24583 FILLER_58_103
*24584 FILLER_58_106
*24585 FILLER_58_109
*24586 FILLER_58_112
*24587 FILLER_58_12
*24588 FILLER_58_1208
*24589 FILLER_58_1211
*24590 FILLER_58_1214
*24591 FILLER_58_1217
*24592 FILLER_58_1220
*24593 FILLER_58_1223
*24594 FILLER_58_1226
*24595 FILLER_58_1229
*24596 FILLER_58_1232
*24597 FILLER_58_1234
*24598 FILLER_58_1237
*24599 FILLER_58_1240
*24600 FILLER_58_1243
*24601 FILLER_58_1246
*24602 FILLER_58_1249
*24603 FILLER_58_1252
*24604 FILLER_58_1255
*24605 FILLER_58_1258
*24606 FILLER_58_1261
*24607 FILLER_58_1264
*24608 FILLER_58_1267
*24609 FILLER_58_1270
*24610 FILLER_58_1273
*24611 FILLER_58_1276
*24612 FILLER_58_1279
*24613 FILLER_58_1282
*24614 FILLER_58_1285
*24615 FILLER_58_1288
*24616 FILLER_58_1290
*24617 FILLER_58_1293
*24618 FILLER_58_1296
*24619 FILLER_58_1299
*24620 FILLER_58_1302
*24621 FILLER_58_1305
*24622 FILLER_58_1308
*24623 FILLER_58_1311
*24624 FILLER_58_1314
*24625 FILLER_58_1317
*24626 FILLER_58_1320
*24627 FILLER_58_1323
*24628 FILLER_58_1326
*24629 FILLER_58_1329
*24630 FILLER_58_1332
*24631 FILLER_58_1335
*24632 FILLER_58_1338
*24633 FILLER_58_1341
*24634 FILLER_58_1344
*24635 FILLER_58_1346
*24636 FILLER_58_1349
*24637 FILLER_58_1352
*24638 FILLER_58_1355
*24639 FILLER_58_1358
*24640 FILLER_58_1361
*24641 FILLER_58_15
*24642 FILLER_58_18
*24643 FILLER_58_21
*24644 FILLER_58_24
*24645 FILLER_58_27
*24646 FILLER_58_29
*24647 FILLER_58_3
*24648 FILLER_58_32
*24649 FILLER_58_35
*24650 FILLER_58_38
*24651 FILLER_58_41
*24652 FILLER_58_44
*24653 FILLER_58_47
*24654 FILLER_58_50
*24655 FILLER_58_53
*24656 FILLER_58_56
*24657 FILLER_58_59
*24658 FILLER_58_6
*24659 FILLER_58_62
*24660 FILLER_58_65
*24661 FILLER_58_68
*24662 FILLER_58_71
*24663 FILLER_58_74
*24664 FILLER_58_77
*24665 FILLER_58_80
*24666 FILLER_58_83
*24667 FILLER_58_85
*24668 FILLER_58_88
*24669 FILLER_58_9
*24670 FILLER_58_91
*24671 FILLER_58_94
*24672 FILLER_58_97
*24673 FILLER_59_102
*24674 FILLER_59_105
*24675 FILLER_59_108
*24676 FILLER_59_111
*24677 FILLER_59_113
*24678 FILLER_59_12
*24679 FILLER_59_1208
*24680 FILLER_59_1211
*24681 FILLER_59_1214
*24682 FILLER_59_1217
*24683 FILLER_59_1220
*24684 FILLER_59_1223
*24685 FILLER_59_1226
*24686 FILLER_59_1229
*24687 FILLER_59_1232
*24688 FILLER_59_1235
*24689 FILLER_59_1238
*24690 FILLER_59_1241
*24691 FILLER_59_1244
*24692 FILLER_59_1247
*24693 FILLER_59_1250
*24694 FILLER_59_1253
*24695 FILLER_59_1256
*24696 FILLER_59_1259
*24697 FILLER_59_1262
*24698 FILLER_59_1265
*24699 FILLER_59_1268
*24700 FILLER_59_1271
*24701 FILLER_59_1274
*24702 FILLER_59_1277
*24703 FILLER_59_1280
*24704 FILLER_59_1283
*24705 FILLER_59_1286
*24706 FILLER_59_1289
*24707 FILLER_59_1292
*24708 FILLER_59_1295
*24709 FILLER_59_1298
*24710 FILLER_59_1301
*24711 FILLER_59_1304
*24712 FILLER_59_1307
*24713 FILLER_59_1310
*24714 FILLER_59_1313
*24715 FILLER_59_1316
*24716 FILLER_59_1318
*24717 FILLER_59_1321
*24718 FILLER_59_1324
*24719 FILLER_59_1327
*24720 FILLER_59_1330
*24721 FILLER_59_1333
*24722 FILLER_59_1336
*24723 FILLER_59_1339
*24724 FILLER_59_1342
*24725 FILLER_59_1345
*24726 FILLER_59_1348
*24727 FILLER_59_1351
*24728 FILLER_59_1354
*24729 FILLER_59_1357
*24730 FILLER_59_1360
*24731 FILLER_59_1363
*24732 FILLER_59_15
*24733 FILLER_59_18
*24734 FILLER_59_21
*24735 FILLER_59_24
*24736 FILLER_59_27
*24737 FILLER_59_3
*24738 FILLER_59_30
*24739 FILLER_59_33
*24740 FILLER_59_36
*24741 FILLER_59_39
*24742 FILLER_59_42
*24743 FILLER_59_45
*24744 FILLER_59_48
*24745 FILLER_59_51
*24746 FILLER_59_54
*24747 FILLER_59_57
*24748 FILLER_59_6
*24749 FILLER_59_60
*24750 FILLER_59_63
*24751 FILLER_59_66
*24752 FILLER_59_69
*24753 FILLER_59_72
*24754 FILLER_59_75
*24755 FILLER_59_78
*24756 FILLER_59_81
*24757 FILLER_59_84
*24758 FILLER_59_87
*24759 FILLER_59_9
*24760 FILLER_59_90
*24761 FILLER_59_93
*24762 FILLER_59_96
*24763 FILLER_59_99
*24764 FILLER_5_1001
*24765 FILLER_5_1004
*24766 FILLER_5_1007
*24767 FILLER_5_1009
*24768 FILLER_5_1012
*24769 FILLER_5_1015
*24770 FILLER_5_1018
*24771 FILLER_5_102
*24772 FILLER_5_1021
*24773 FILLER_5_1024
*24774 FILLER_5_1027
*24775 FILLER_5_1030
*24776 FILLER_5_1033
*24777 FILLER_5_1036
*24778 FILLER_5_1039
*24779 FILLER_5_1042
*24780 FILLER_5_1045
*24781 FILLER_5_1048
*24782 FILLER_5_105
*24783 FILLER_5_1051
*24784 FILLER_5_1054
*24785 FILLER_5_1057
*24786 FILLER_5_1060
*24787 FILLER_5_1063
*24788 FILLER_5_1065
*24789 FILLER_5_1068
*24790 FILLER_5_1071
*24791 FILLER_5_1074
*24792 FILLER_5_1077
*24793 FILLER_5_108
*24794 FILLER_5_1080
*24795 FILLER_5_1083
*24796 FILLER_5_1086
*24797 FILLER_5_1089
*24798 FILLER_5_1092
*24799 FILLER_5_1095
*24800 FILLER_5_1098
*24801 FILLER_5_1101
*24802 FILLER_5_1104
*24803 FILLER_5_1107
*24804 FILLER_5_111
*24805 FILLER_5_1110
*24806 FILLER_5_1113
*24807 FILLER_5_1116
*24808 FILLER_5_1119
*24809 FILLER_5_1121
*24810 FILLER_5_1124
*24811 FILLER_5_1127
*24812 FILLER_5_113
*24813 FILLER_5_1130
*24814 FILLER_5_1133
*24815 FILLER_5_1136
*24816 FILLER_5_1139
*24817 FILLER_5_1142
*24818 FILLER_5_1145
*24819 FILLER_5_1148
*24820 FILLER_5_1151
*24821 FILLER_5_1154
*24822 FILLER_5_1157
*24823 FILLER_5_116
*24824 FILLER_5_1160
*24825 FILLER_5_1163
*24826 FILLER_5_1166
*24827 FILLER_5_1169
*24828 FILLER_5_1172
*24829 FILLER_5_1175
*24830 FILLER_5_1177
*24831 FILLER_5_1180
*24832 FILLER_5_1183
*24833 FILLER_5_1186
*24834 FILLER_5_1189
*24835 FILLER_5_119
*24836 FILLER_5_1192
*24837 FILLER_5_1195
*24838 FILLER_5_1198
*24839 FILLER_5_12
*24840 FILLER_5_1201
*24841 FILLER_5_1204
*24842 FILLER_5_1207
*24843 FILLER_5_1210
*24844 FILLER_5_1213
*24845 FILLER_5_1216
*24846 FILLER_5_1219
*24847 FILLER_5_122
*24848 FILLER_5_1222
*24849 FILLER_5_1225
*24850 FILLER_5_1228
*24851 FILLER_5_1231
*24852 FILLER_5_1233
*24853 FILLER_5_1236
*24854 FILLER_5_1239
*24855 FILLER_5_1242
*24856 FILLER_5_1245
*24857 FILLER_5_1248
*24858 FILLER_5_125
*24859 FILLER_5_1251
*24860 FILLER_5_1254
*24861 FILLER_5_1257
*24862 FILLER_5_1260
*24863 FILLER_5_1263
*24864 FILLER_5_1266
*24865 FILLER_5_1269
*24866 FILLER_5_1272
*24867 FILLER_5_1275
*24868 FILLER_5_1278
*24869 FILLER_5_128
*24870 FILLER_5_1281
*24871 FILLER_5_1284
*24872 FILLER_5_1287
*24873 FILLER_5_1289
*24874 FILLER_5_1292
*24875 FILLER_5_1295
*24876 FILLER_5_1298
*24877 FILLER_5_1301
*24878 FILLER_5_1304
*24879 FILLER_5_1307
*24880 FILLER_5_131
*24881 FILLER_5_1310
*24882 FILLER_5_1313
*24883 FILLER_5_1316
*24884 FILLER_5_1319
*24885 FILLER_5_1322
*24886 FILLER_5_1325
*24887 FILLER_5_1328
*24888 FILLER_5_1331
*24889 FILLER_5_1334
*24890 FILLER_5_1337
*24891 FILLER_5_134
*24892 FILLER_5_1340
*24893 FILLER_5_1343
*24894 FILLER_5_1345
*24895 FILLER_5_1348
*24896 FILLER_5_1351
*24897 FILLER_5_1354
*24898 FILLER_5_1357
*24899 FILLER_5_1360
*24900 FILLER_5_1363
*24901 FILLER_5_137
*24902 FILLER_5_140
*24903 FILLER_5_143
*24904 FILLER_5_146
*24905 FILLER_5_149
*24906 FILLER_5_15
*24907 FILLER_5_152
*24908 FILLER_5_155
*24909 FILLER_5_158
*24910 FILLER_5_161
*24911 FILLER_5_164
*24912 FILLER_5_167
*24913 FILLER_5_169
*24914 FILLER_5_172
*24915 FILLER_5_175
*24916 FILLER_5_178
*24917 FILLER_5_18
*24918 FILLER_5_181
*24919 FILLER_5_184
*24920 FILLER_5_187
*24921 FILLER_5_190
*24922 FILLER_5_193
*24923 FILLER_5_196
*24924 FILLER_5_199
*24925 FILLER_5_202
*24926 FILLER_5_205
*24927 FILLER_5_208
*24928 FILLER_5_21
*24929 FILLER_5_211
*24930 FILLER_5_214
*24931 FILLER_5_217
*24932 FILLER_5_220
*24933 FILLER_5_223
*24934 FILLER_5_225
*24935 FILLER_5_228
*24936 FILLER_5_231
*24937 FILLER_5_234
*24938 FILLER_5_237
*24939 FILLER_5_24
*24940 FILLER_5_240
*24941 FILLER_5_243
*24942 FILLER_5_246
*24943 FILLER_5_249
*24944 FILLER_5_252
*24945 FILLER_5_255
*24946 FILLER_5_258
*24947 FILLER_5_261
*24948 FILLER_5_264
*24949 FILLER_5_267
*24950 FILLER_5_27
*24951 FILLER_5_270
*24952 FILLER_5_273
*24953 FILLER_5_276
*24954 FILLER_5_279
*24955 FILLER_5_281
*24956 FILLER_5_284
*24957 FILLER_5_287
*24958 FILLER_5_290
*24959 FILLER_5_293
*24960 FILLER_5_296
*24961 FILLER_5_299
*24962 FILLER_5_3
*24963 FILLER_5_30
*24964 FILLER_5_302
*24965 FILLER_5_305
*24966 FILLER_5_308
*24967 FILLER_5_311
*24968 FILLER_5_314
*24969 FILLER_5_317
*24970 FILLER_5_320
*24971 FILLER_5_323
*24972 FILLER_5_326
*24973 FILLER_5_329
*24974 FILLER_5_33
*24975 FILLER_5_332
*24976 FILLER_5_335
*24977 FILLER_5_337
*24978 FILLER_5_340
*24979 FILLER_5_343
*24980 FILLER_5_346
*24981 FILLER_5_349
*24982 FILLER_5_352
*24983 FILLER_5_355
*24984 FILLER_5_358
*24985 FILLER_5_36
*24986 FILLER_5_361
*24987 FILLER_5_364
*24988 FILLER_5_367
*24989 FILLER_5_370
*24990 FILLER_5_373
*24991 FILLER_5_376
*24992 FILLER_5_379
*24993 FILLER_5_382
*24994 FILLER_5_385
*24995 FILLER_5_388
*24996 FILLER_5_39
*24997 FILLER_5_391
*24998 FILLER_5_393
*24999 FILLER_5_396
*25000 FILLER_5_399
*25001 FILLER_5_402
*25002 FILLER_5_405
*25003 FILLER_5_408
*25004 FILLER_5_411
*25005 FILLER_5_414
*25006 FILLER_5_417
*25007 FILLER_5_42
*25008 FILLER_5_420
*25009 FILLER_5_423
*25010 FILLER_5_426
*25011 FILLER_5_429
*25012 FILLER_5_432
*25013 FILLER_5_435
*25014 FILLER_5_438
*25015 FILLER_5_441
*25016 FILLER_5_444
*25017 FILLER_5_447
*25018 FILLER_5_449
*25019 FILLER_5_45
*25020 FILLER_5_452
*25021 FILLER_5_455
*25022 FILLER_5_458
*25023 FILLER_5_461
*25024 FILLER_5_464
*25025 FILLER_5_467
*25026 FILLER_5_470
*25027 FILLER_5_473
*25028 FILLER_5_476
*25029 FILLER_5_479
*25030 FILLER_5_48
*25031 FILLER_5_482
*25032 FILLER_5_485
*25033 FILLER_5_488
*25034 FILLER_5_491
*25035 FILLER_5_494
*25036 FILLER_5_497
*25037 FILLER_5_500
*25038 FILLER_5_503
*25039 FILLER_5_505
*25040 FILLER_5_508
*25041 FILLER_5_51
*25042 FILLER_5_511
*25043 FILLER_5_514
*25044 FILLER_5_517
*25045 FILLER_5_520
*25046 FILLER_5_523
*25047 FILLER_5_526
*25048 FILLER_5_529
*25049 FILLER_5_532
*25050 FILLER_5_535
*25051 FILLER_5_538
*25052 FILLER_5_54
*25053 FILLER_5_541
*25054 FILLER_5_544
*25055 FILLER_5_547
*25056 FILLER_5_550
*25057 FILLER_5_553
*25058 FILLER_5_556
*25059 FILLER_5_559
*25060 FILLER_5_561
*25061 FILLER_5_564
*25062 FILLER_5_567
*25063 FILLER_5_57
*25064 FILLER_5_570
*25065 FILLER_5_573
*25066 FILLER_5_576
*25067 FILLER_5_579
*25068 FILLER_5_582
*25069 FILLER_5_585
*25070 FILLER_5_588
*25071 FILLER_5_591
*25072 FILLER_5_594
*25073 FILLER_5_597
*25074 FILLER_5_6
*25075 FILLER_5_60
*25076 FILLER_5_600
*25077 FILLER_5_603
*25078 FILLER_5_606
*25079 FILLER_5_609
*25080 FILLER_5_612
*25081 FILLER_5_615
*25082 FILLER_5_617
*25083 FILLER_5_620
*25084 FILLER_5_623
*25085 FILLER_5_626
*25086 FILLER_5_629
*25087 FILLER_5_63
*25088 FILLER_5_632
*25089 FILLER_5_635
*25090 FILLER_5_638
*25091 FILLER_5_641
*25092 FILLER_5_644
*25093 FILLER_5_647
*25094 FILLER_5_650
*25095 FILLER_5_653
*25096 FILLER_5_656
*25097 FILLER_5_659
*25098 FILLER_5_66
*25099 FILLER_5_662
*25100 FILLER_5_665
*25101 FILLER_5_668
*25102 FILLER_5_671
*25103 FILLER_5_673
*25104 FILLER_5_676
*25105 FILLER_5_679
*25106 FILLER_5_682
*25107 FILLER_5_685
*25108 FILLER_5_688
*25109 FILLER_5_69
*25110 FILLER_5_691
*25111 FILLER_5_694
*25112 FILLER_5_697
*25113 FILLER_5_700
*25114 FILLER_5_703
*25115 FILLER_5_706
*25116 FILLER_5_709
*25117 FILLER_5_712
*25118 FILLER_5_715
*25119 FILLER_5_718
*25120 FILLER_5_72
*25121 FILLER_5_721
*25122 FILLER_5_724
*25123 FILLER_5_727
*25124 FILLER_5_729
*25125 FILLER_5_732
*25126 FILLER_5_735
*25127 FILLER_5_738
*25128 FILLER_5_741
*25129 FILLER_5_744
*25130 FILLER_5_747
*25131 FILLER_5_75
*25132 FILLER_5_750
*25133 FILLER_5_753
*25134 FILLER_5_756
*25135 FILLER_5_759
*25136 FILLER_5_762
*25137 FILLER_5_765
*25138 FILLER_5_768
*25139 FILLER_5_771
*25140 FILLER_5_774
*25141 FILLER_5_777
*25142 FILLER_5_78
*25143 FILLER_5_780
*25144 FILLER_5_783
*25145 FILLER_5_785
*25146 FILLER_5_788
*25147 FILLER_5_791
*25148 FILLER_5_794
*25149 FILLER_5_797
*25150 FILLER_5_800
*25151 FILLER_5_803
*25152 FILLER_5_806
*25153 FILLER_5_809
*25154 FILLER_5_81
*25155 FILLER_5_812
*25156 FILLER_5_815
*25157 FILLER_5_818
*25158 FILLER_5_821
*25159 FILLER_5_824
*25160 FILLER_5_827
*25161 FILLER_5_830
*25162 FILLER_5_833
*25163 FILLER_5_836
*25164 FILLER_5_839
*25165 FILLER_5_84
*25166 FILLER_5_841
*25167 FILLER_5_844
*25168 FILLER_5_847
*25169 FILLER_5_850
*25170 FILLER_5_853
*25171 FILLER_5_856
*25172 FILLER_5_859
*25173 FILLER_5_862
*25174 FILLER_5_865
*25175 FILLER_5_868
*25176 FILLER_5_87
*25177 FILLER_5_871
*25178 FILLER_5_874
*25179 FILLER_5_877
*25180 FILLER_5_880
*25181 FILLER_5_883
*25182 FILLER_5_886
*25183 FILLER_5_889
*25184 FILLER_5_892
*25185 FILLER_5_895
*25186 FILLER_5_897
*25187 FILLER_5_9
*25188 FILLER_5_90
*25189 FILLER_5_900
*25190 FILLER_5_903
*25191 FILLER_5_906
*25192 FILLER_5_909
*25193 FILLER_5_912
*25194 FILLER_5_915
*25195 FILLER_5_918
*25196 FILLER_5_921
*25197 FILLER_5_924
*25198 FILLER_5_927
*25199 FILLER_5_93
*25200 FILLER_5_930
*25201 FILLER_5_933
*25202 FILLER_5_936
*25203 FILLER_5_939
*25204 FILLER_5_942
*25205 FILLER_5_945
*25206 FILLER_5_948
*25207 FILLER_5_951
*25208 FILLER_5_953
*25209 FILLER_5_956
*25210 FILLER_5_959
*25211 FILLER_5_96
*25212 FILLER_5_962
*25213 FILLER_5_965
*25214 FILLER_5_968
*25215 FILLER_5_971
*25216 FILLER_5_974
*25217 FILLER_5_977
*25218 FILLER_5_980
*25219 FILLER_5_983
*25220 FILLER_5_986
*25221 FILLER_5_989
*25222 FILLER_5_99
*25223 FILLER_5_992
*25224 FILLER_5_995
*25225 FILLER_5_998
*25226 FILLER_60_100
*25227 FILLER_60_103
*25228 FILLER_60_106
*25229 FILLER_60_109
*25230 FILLER_60_112
*25231 FILLER_60_12
*25232 FILLER_60_1208
*25233 FILLER_60_1211
*25234 FILLER_60_1214
*25235 FILLER_60_1217
*25236 FILLER_60_1220
*25237 FILLER_60_1223
*25238 FILLER_60_1226
*25239 FILLER_60_1229
*25240 FILLER_60_1232
*25241 FILLER_60_1234
*25242 FILLER_60_1237
*25243 FILLER_60_1240
*25244 FILLER_60_1243
*25245 FILLER_60_1246
*25246 FILLER_60_1249
*25247 FILLER_60_1252
*25248 FILLER_60_1255
*25249 FILLER_60_1258
*25250 FILLER_60_1261
*25251 FILLER_60_1264
*25252 FILLER_60_1267
*25253 FILLER_60_1270
*25254 FILLER_60_1273
*25255 FILLER_60_1276
*25256 FILLER_60_1279
*25257 FILLER_60_1282
*25258 FILLER_60_1285
*25259 FILLER_60_1288
*25260 FILLER_60_1290
*25261 FILLER_60_1293
*25262 FILLER_60_1296
*25263 FILLER_60_1299
*25264 FILLER_60_1302
*25265 FILLER_60_1305
*25266 FILLER_60_1308
*25267 FILLER_60_1311
*25268 FILLER_60_1314
*25269 FILLER_60_1317
*25270 FILLER_60_1320
*25271 FILLER_60_1323
*25272 FILLER_60_1326
*25273 FILLER_60_1329
*25274 FILLER_60_1332
*25275 FILLER_60_1335
*25276 FILLER_60_1338
*25277 FILLER_60_1341
*25278 FILLER_60_1344
*25279 FILLER_60_1346
*25280 FILLER_60_1349
*25281 FILLER_60_1352
*25282 FILLER_60_1355
*25283 FILLER_60_1358
*25284 FILLER_60_1361
*25285 FILLER_60_15
*25286 FILLER_60_18
*25287 FILLER_60_21
*25288 FILLER_60_24
*25289 FILLER_60_27
*25290 FILLER_60_29
*25291 FILLER_60_3
*25292 FILLER_60_32
*25293 FILLER_60_35
*25294 FILLER_60_38
*25295 FILLER_60_41
*25296 FILLER_60_44
*25297 FILLER_60_47
*25298 FILLER_60_50
*25299 FILLER_60_53
*25300 FILLER_60_56
*25301 FILLER_60_59
*25302 FILLER_60_6
*25303 FILLER_60_62
*25304 FILLER_60_65
*25305 FILLER_60_68
*25306 FILLER_60_71
*25307 FILLER_60_74
*25308 FILLER_60_77
*25309 FILLER_60_80
*25310 FILLER_60_83
*25311 FILLER_60_85
*25312 FILLER_60_88
*25313 FILLER_60_9
*25314 FILLER_60_91
*25315 FILLER_60_94
*25316 FILLER_60_97
*25317 FILLER_61_102
*25318 FILLER_61_105
*25319 FILLER_61_108
*25320 FILLER_61_111
*25321 FILLER_61_113
*25322 FILLER_61_12
*25323 FILLER_61_1208
*25324 FILLER_61_1211
*25325 FILLER_61_1214
*25326 FILLER_61_1217
*25327 FILLER_61_1220
*25328 FILLER_61_1223
*25329 FILLER_61_1226
*25330 FILLER_61_1229
*25331 FILLER_61_1232
*25332 FILLER_61_1235
*25333 FILLER_61_1238
*25334 FILLER_61_1241
*25335 FILLER_61_1244
*25336 FILLER_61_1247
*25337 FILLER_61_1250
*25338 FILLER_61_1253
*25339 FILLER_61_1256
*25340 FILLER_61_1259
*25341 FILLER_61_1262
*25342 FILLER_61_1265
*25343 FILLER_61_1268
*25344 FILLER_61_1271
*25345 FILLER_61_1274
*25346 FILLER_61_1277
*25347 FILLER_61_1280
*25348 FILLER_61_1283
*25349 FILLER_61_1286
*25350 FILLER_61_1289
*25351 FILLER_61_1292
*25352 FILLER_61_1295
*25353 FILLER_61_1298
*25354 FILLER_61_1301
*25355 FILLER_61_1304
*25356 FILLER_61_1307
*25357 FILLER_61_1310
*25358 FILLER_61_1313
*25359 FILLER_61_1316
*25360 FILLER_61_1318
*25361 FILLER_61_1321
*25362 FILLER_61_1324
*25363 FILLER_61_1327
*25364 FILLER_61_1330
*25365 FILLER_61_1333
*25366 FILLER_61_1336
*25367 FILLER_61_1339
*25368 FILLER_61_1342
*25369 FILLER_61_1345
*25370 FILLER_61_1348
*25371 FILLER_61_1351
*25372 FILLER_61_1354
*25373 FILLER_61_1357
*25374 FILLER_61_1360
*25375 FILLER_61_1363
*25376 FILLER_61_15
*25377 FILLER_61_18
*25378 FILLER_61_21
*25379 FILLER_61_24
*25380 FILLER_61_27
*25381 FILLER_61_3
*25382 FILLER_61_30
*25383 FILLER_61_33
*25384 FILLER_61_36
*25385 FILLER_61_39
*25386 FILLER_61_42
*25387 FILLER_61_45
*25388 FILLER_61_48
*25389 FILLER_61_51
*25390 FILLER_61_54
*25391 FILLER_61_57
*25392 FILLER_61_6
*25393 FILLER_61_60
*25394 FILLER_61_63
*25395 FILLER_61_66
*25396 FILLER_61_69
*25397 FILLER_61_72
*25398 FILLER_61_75
*25399 FILLER_61_78
*25400 FILLER_61_81
*25401 FILLER_61_84
*25402 FILLER_61_87
*25403 FILLER_61_9
*25404 FILLER_61_90
*25405 FILLER_61_93
*25406 FILLER_61_96
*25407 FILLER_61_99
*25408 FILLER_62_100
*25409 FILLER_62_103
*25410 FILLER_62_106
*25411 FILLER_62_109
*25412 FILLER_62_112
*25413 FILLER_62_1208
*25414 FILLER_62_1211
*25415 FILLER_62_1214
*25416 FILLER_62_1217
*25417 FILLER_62_1220
*25418 FILLER_62_1223
*25419 FILLER_62_1226
*25420 FILLER_62_1229
*25421 FILLER_62_1232
*25422 FILLER_62_1234
*25423 FILLER_62_1237
*25424 FILLER_62_1240
*25425 FILLER_62_1243
*25426 FILLER_62_1246
*25427 FILLER_62_1249
*25428 FILLER_62_1252
*25429 FILLER_62_1255
*25430 FILLER_62_1258
*25431 FILLER_62_1261
*25432 FILLER_62_1264
*25433 FILLER_62_1267
*25434 FILLER_62_1270
*25435 FILLER_62_1273
*25436 FILLER_62_1276
*25437 FILLER_62_1279
*25438 FILLER_62_1282
*25439 FILLER_62_1285
*25440 FILLER_62_1288
*25441 FILLER_62_1290
*25442 FILLER_62_1293
*25443 FILLER_62_1296
*25444 FILLER_62_1299
*25445 FILLER_62_1302
*25446 FILLER_62_1305
*25447 FILLER_62_1308
*25448 FILLER_62_1311
*25449 FILLER_62_1314
*25450 FILLER_62_1317
*25451 FILLER_62_1320
*25452 FILLER_62_1323
*25453 FILLER_62_1326
*25454 FILLER_62_1329
*25455 FILLER_62_1332
*25456 FILLER_62_1335
*25457 FILLER_62_1338
*25458 FILLER_62_1341
*25459 FILLER_62_1344
*25460 FILLER_62_1346
*25461 FILLER_62_1349
*25462 FILLER_62_1352
*25463 FILLER_62_1355
*25464 FILLER_62_1358
*25465 FILLER_62_1361
*25466 FILLER_62_18
*25467 FILLER_62_21
*25468 FILLER_62_24
*25469 FILLER_62_27
*25470 FILLER_62_29
*25471 FILLER_62_3
*25472 FILLER_62_32
*25473 FILLER_62_35
*25474 FILLER_62_38
*25475 FILLER_62_41
*25476 FILLER_62_44
*25477 FILLER_62_47
*25478 FILLER_62_50
*25479 FILLER_62_53
*25480 FILLER_62_56
*25481 FILLER_62_59
*25482 FILLER_62_6
*25483 FILLER_62_62
*25484 FILLER_62_65
*25485 FILLER_62_68
*25486 FILLER_62_71
*25487 FILLER_62_74
*25488 FILLER_62_77
*25489 FILLER_62_80
*25490 FILLER_62_83
*25491 FILLER_62_85
*25492 FILLER_62_88
*25493 FILLER_62_9
*25494 FILLER_62_91
*25495 FILLER_62_94
*25496 FILLER_62_97
*25497 FILLER_63_102
*25498 FILLER_63_105
*25499 FILLER_63_108
*25500 FILLER_63_111
*25501 FILLER_63_113
*25502 FILLER_63_12
*25503 FILLER_63_1208
*25504 FILLER_63_1211
*25505 FILLER_63_1214
*25506 FILLER_63_1217
*25507 FILLER_63_1220
*25508 FILLER_63_1223
*25509 FILLER_63_1226
*25510 FILLER_63_1229
*25511 FILLER_63_1232
*25512 FILLER_63_1235
*25513 FILLER_63_1238
*25514 FILLER_63_1241
*25515 FILLER_63_1244
*25516 FILLER_63_1247
*25517 FILLER_63_1250
*25518 FILLER_63_1253
*25519 FILLER_63_1256
*25520 FILLER_63_1259
*25521 FILLER_63_1262
*25522 FILLER_63_1265
*25523 FILLER_63_1268
*25524 FILLER_63_1271
*25525 FILLER_63_1274
*25526 FILLER_63_1277
*25527 FILLER_63_1280
*25528 FILLER_63_1283
*25529 FILLER_63_1286
*25530 FILLER_63_1289
*25531 FILLER_63_1292
*25532 FILLER_63_1295
*25533 FILLER_63_1298
*25534 FILLER_63_1301
*25535 FILLER_63_1304
*25536 FILLER_63_1307
*25537 FILLER_63_1310
*25538 FILLER_63_1313
*25539 FILLER_63_1316
*25540 FILLER_63_1318
*25541 FILLER_63_1321
*25542 FILLER_63_1324
*25543 FILLER_63_1327
*25544 FILLER_63_1330
*25545 FILLER_63_1333
*25546 FILLER_63_1336
*25547 FILLER_63_1339
*25548 FILLER_63_1342
*25549 FILLER_63_1345
*25550 FILLER_63_1348
*25551 FILLER_63_1351
*25552 FILLER_63_1354
*25553 FILLER_63_1357
*25554 FILLER_63_1360
*25555 FILLER_63_1363
*25556 FILLER_63_15
*25557 FILLER_63_18
*25558 FILLER_63_21
*25559 FILLER_63_24
*25560 FILLER_63_27
*25561 FILLER_63_3
*25562 FILLER_63_30
*25563 FILLER_63_33
*25564 FILLER_63_36
*25565 FILLER_63_39
*25566 FILLER_63_42
*25567 FILLER_63_45
*25568 FILLER_63_48
*25569 FILLER_63_51
*25570 FILLER_63_54
*25571 FILLER_63_57
*25572 FILLER_63_6
*25573 FILLER_63_60
*25574 FILLER_63_63
*25575 FILLER_63_66
*25576 FILLER_63_69
*25577 FILLER_63_72
*25578 FILLER_63_75
*25579 FILLER_63_78
*25580 FILLER_63_81
*25581 FILLER_63_84
*25582 FILLER_63_87
*25583 FILLER_63_9
*25584 FILLER_63_90
*25585 FILLER_63_93
*25586 FILLER_63_96
*25587 FILLER_63_99
*25588 FILLER_64_100
*25589 FILLER_64_103
*25590 FILLER_64_106
*25591 FILLER_64_109
*25592 FILLER_64_112
*25593 FILLER_64_1208
*25594 FILLER_64_1211
*25595 FILLER_64_1214
*25596 FILLER_64_1217
*25597 FILLER_64_1220
*25598 FILLER_64_1223
*25599 FILLER_64_1226
*25600 FILLER_64_1229
*25601 FILLER_64_1232
*25602 FILLER_64_1234
*25603 FILLER_64_1237
*25604 FILLER_64_1240
*25605 FILLER_64_1243
*25606 FILLER_64_1246
*25607 FILLER_64_1249
*25608 FILLER_64_1252
*25609 FILLER_64_1255
*25610 FILLER_64_1258
*25611 FILLER_64_1261
*25612 FILLER_64_1264
*25613 FILLER_64_1267
*25614 FILLER_64_1270
*25615 FILLER_64_1273
*25616 FILLER_64_1276
*25617 FILLER_64_1279
*25618 FILLER_64_1282
*25619 FILLER_64_1285
*25620 FILLER_64_1288
*25621 FILLER_64_1290
*25622 FILLER_64_1293
*25623 FILLER_64_1296
*25624 FILLER_64_1299
*25625 FILLER_64_1302
*25626 FILLER_64_1305
*25627 FILLER_64_1308
*25628 FILLER_64_1311
*25629 FILLER_64_1314
*25630 FILLER_64_1317
*25631 FILLER_64_1320
*25632 FILLER_64_1323
*25633 FILLER_64_1326
*25634 FILLER_64_1329
*25635 FILLER_64_1332
*25636 FILLER_64_1335
*25637 FILLER_64_1338
*25638 FILLER_64_1341
*25639 FILLER_64_1344
*25640 FILLER_64_1346
*25641 FILLER_64_1349
*25642 FILLER_64_1352
*25643 FILLER_64_1355
*25644 FILLER_64_1358
*25645 FILLER_64_1361
*25646 FILLER_64_17
*25647 FILLER_64_20
*25648 FILLER_64_23
*25649 FILLER_64_26
*25650 FILLER_64_29
*25651 FILLER_64_3
*25652 FILLER_64_32
*25653 FILLER_64_35
*25654 FILLER_64_38
*25655 FILLER_64_41
*25656 FILLER_64_52
*25657 FILLER_64_55
*25658 FILLER_64_58
*25659 FILLER_64_6
*25660 FILLER_64_61
*25661 FILLER_64_64
*25662 FILLER_64_67
*25663 FILLER_64_70
*25664 FILLER_64_73
*25665 FILLER_64_76
*25666 FILLER_64_79
*25667 FILLER_64_82
*25668 FILLER_64_85
*25669 FILLER_64_88
*25670 FILLER_64_9
*25671 FILLER_64_91
*25672 FILLER_64_94
*25673 FILLER_64_97
*25674 FILLER_65_102
*25675 FILLER_65_105
*25676 FILLER_65_108
*25677 FILLER_65_111
*25678 FILLER_65_113
*25679 FILLER_65_12
*25680 FILLER_65_1208
*25681 FILLER_65_1211
*25682 FILLER_65_1214
*25683 FILLER_65_1217
*25684 FILLER_65_1220
*25685 FILLER_65_1223
*25686 FILLER_65_1226
*25687 FILLER_65_1229
*25688 FILLER_65_1232
*25689 FILLER_65_1235
*25690 FILLER_65_1238
*25691 FILLER_65_1241
*25692 FILLER_65_1244
*25693 FILLER_65_1247
*25694 FILLER_65_1250
*25695 FILLER_65_1253
*25696 FILLER_65_1256
*25697 FILLER_65_1259
*25698 FILLER_65_1262
*25699 FILLER_65_1265
*25700 FILLER_65_1268
*25701 FILLER_65_1271
*25702 FILLER_65_1274
*25703 FILLER_65_1277
*25704 FILLER_65_1280
*25705 FILLER_65_1283
*25706 FILLER_65_1286
*25707 FILLER_65_1289
*25708 FILLER_65_1292
*25709 FILLER_65_1295
*25710 FILLER_65_1298
*25711 FILLER_65_1301
*25712 FILLER_65_1304
*25713 FILLER_65_1307
*25714 FILLER_65_1310
*25715 FILLER_65_1313
*25716 FILLER_65_1316
*25717 FILLER_65_1318
*25718 FILLER_65_1321
*25719 FILLER_65_1324
*25720 FILLER_65_1327
*25721 FILLER_65_1330
*25722 FILLER_65_1333
*25723 FILLER_65_1336
*25724 FILLER_65_1339
*25725 FILLER_65_1342
*25726 FILLER_65_1345
*25727 FILLER_65_1348
*25728 FILLER_65_1351
*25729 FILLER_65_1354
*25730 FILLER_65_1357
*25731 FILLER_65_1360
*25732 FILLER_65_1363
*25733 FILLER_65_19
*25734 FILLER_65_22
*25735 FILLER_65_25
*25736 FILLER_65_28
*25737 FILLER_65_3
*25738 FILLER_65_31
*25739 FILLER_65_34
*25740 FILLER_65_37
*25741 FILLER_65_40
*25742 FILLER_65_43
*25743 FILLER_65_46
*25744 FILLER_65_49
*25745 FILLER_65_52
*25746 FILLER_65_55
*25747 FILLER_65_57
*25748 FILLER_65_6
*25749 FILLER_65_60
*25750 FILLER_65_63
*25751 FILLER_65_66
*25752 FILLER_65_69
*25753 FILLER_65_72
*25754 FILLER_65_75
*25755 FILLER_65_78
*25756 FILLER_65_81
*25757 FILLER_65_84
*25758 FILLER_65_87
*25759 FILLER_65_9
*25760 FILLER_65_90
*25761 FILLER_65_93
*25762 FILLER_65_96
*25763 FILLER_65_99
*25764 FILLER_66_100
*25765 FILLER_66_103
*25766 FILLER_66_106
*25767 FILLER_66_109
*25768 FILLER_66_112
*25769 FILLER_66_12
*25770 FILLER_66_1208
*25771 FILLER_66_1211
*25772 FILLER_66_1214
*25773 FILLER_66_1217
*25774 FILLER_66_1220
*25775 FILLER_66_1223
*25776 FILLER_66_1226
*25777 FILLER_66_1229
*25778 FILLER_66_1232
*25779 FILLER_66_1234
*25780 FILLER_66_1237
*25781 FILLER_66_1240
*25782 FILLER_66_1243
*25783 FILLER_66_1246
*25784 FILLER_66_1249
*25785 FILLER_66_1252
*25786 FILLER_66_1255
*25787 FILLER_66_1258
*25788 FILLER_66_1261
*25789 FILLER_66_1264
*25790 FILLER_66_1267
*25791 FILLER_66_1270
*25792 FILLER_66_1273
*25793 FILLER_66_1276
*25794 FILLER_66_1279
*25795 FILLER_66_1282
*25796 FILLER_66_1285
*25797 FILLER_66_1288
*25798 FILLER_66_1290
*25799 FILLER_66_1293
*25800 FILLER_66_1296
*25801 FILLER_66_1299
*25802 FILLER_66_1302
*25803 FILLER_66_1305
*25804 FILLER_66_1308
*25805 FILLER_66_1311
*25806 FILLER_66_1314
*25807 FILLER_66_1317
*25808 FILLER_66_1320
*25809 FILLER_66_1323
*25810 FILLER_66_1326
*25811 FILLER_66_1329
*25812 FILLER_66_1332
*25813 FILLER_66_1335
*25814 FILLER_66_1338
*25815 FILLER_66_1341
*25816 FILLER_66_1344
*25817 FILLER_66_1346
*25818 FILLER_66_1349
*25819 FILLER_66_1352
*25820 FILLER_66_1355
*25821 FILLER_66_1358
*25822 FILLER_66_1361
*25823 FILLER_66_15
*25824 FILLER_66_18
*25825 FILLER_66_21
*25826 FILLER_66_24
*25827 FILLER_66_27
*25828 FILLER_66_29
*25829 FILLER_66_3
*25830 FILLER_66_32
*25831 FILLER_66_35
*25832 FILLER_66_38
*25833 FILLER_66_41
*25834 FILLER_66_52
*25835 FILLER_66_55
*25836 FILLER_66_58
*25837 FILLER_66_6
*25838 FILLER_66_61
*25839 FILLER_66_64
*25840 FILLER_66_67
*25841 FILLER_66_70
*25842 FILLER_66_73
*25843 FILLER_66_76
*25844 FILLER_66_79
*25845 FILLER_66_82
*25846 FILLER_66_85
*25847 FILLER_66_88
*25848 FILLER_66_9
*25849 FILLER_66_91
*25850 FILLER_66_94
*25851 FILLER_66_97
*25852 FILLER_67_102
*25853 FILLER_67_105
*25854 FILLER_67_108
*25855 FILLER_67_111
*25856 FILLER_67_113
*25857 FILLER_67_12
*25858 FILLER_67_1208
*25859 FILLER_67_1211
*25860 FILLER_67_1214
*25861 FILLER_67_1217
*25862 FILLER_67_1220
*25863 FILLER_67_1223
*25864 FILLER_67_1226
*25865 FILLER_67_1229
*25866 FILLER_67_1232
*25867 FILLER_67_1235
*25868 FILLER_67_1238
*25869 FILLER_67_1241
*25870 FILLER_67_1244
*25871 FILLER_67_1247
*25872 FILLER_67_1250
*25873 FILLER_67_1253
*25874 FILLER_67_1256
*25875 FILLER_67_1259
*25876 FILLER_67_1262
*25877 FILLER_67_1265
*25878 FILLER_67_1268
*25879 FILLER_67_1271
*25880 FILLER_67_1274
*25881 FILLER_67_1277
*25882 FILLER_67_1280
*25883 FILLER_67_1283
*25884 FILLER_67_1286
*25885 FILLER_67_1289
*25886 FILLER_67_1292
*25887 FILLER_67_1295
*25888 FILLER_67_1298
*25889 FILLER_67_1301
*25890 FILLER_67_1304
*25891 FILLER_67_1307
*25892 FILLER_67_1310
*25893 FILLER_67_1313
*25894 FILLER_67_1316
*25895 FILLER_67_1318
*25896 FILLER_67_1321
*25897 FILLER_67_1324
*25898 FILLER_67_1327
*25899 FILLER_67_1330
*25900 FILLER_67_1333
*25901 FILLER_67_1336
*25902 FILLER_67_1339
*25903 FILLER_67_1342
*25904 FILLER_67_1345
*25905 FILLER_67_1348
*25906 FILLER_67_1351
*25907 FILLER_67_1354
*25908 FILLER_67_1357
*25909 FILLER_67_1360
*25910 FILLER_67_1363
*25911 FILLER_67_15
*25912 FILLER_67_18
*25913 FILLER_67_21
*25914 FILLER_67_24
*25915 FILLER_67_27
*25916 FILLER_67_3
*25917 FILLER_67_30
*25918 FILLER_67_33
*25919 FILLER_67_36
*25920 FILLER_67_39
*25921 FILLER_67_42
*25922 FILLER_67_52
*25923 FILLER_67_55
*25924 FILLER_67_57
*25925 FILLER_67_6
*25926 FILLER_67_60
*25927 FILLER_67_63
*25928 FILLER_67_66
*25929 FILLER_67_69
*25930 FILLER_67_72
*25931 FILLER_67_75
*25932 FILLER_67_78
*25933 FILLER_67_81
*25934 FILLER_67_84
*25935 FILLER_67_87
*25936 FILLER_67_9
*25937 FILLER_67_90
*25938 FILLER_67_93
*25939 FILLER_67_96
*25940 FILLER_67_99
*25941 FILLER_68_100
*25942 FILLER_68_103
*25943 FILLER_68_106
*25944 FILLER_68_109
*25945 FILLER_68_112
*25946 FILLER_68_12
*25947 FILLER_68_1208
*25948 FILLER_68_1211
*25949 FILLER_68_1214
*25950 FILLER_68_1217
*25951 FILLER_68_1220
*25952 FILLER_68_1223
*25953 FILLER_68_1226
*25954 FILLER_68_1229
*25955 FILLER_68_1232
*25956 FILLER_68_1234
*25957 FILLER_68_1237
*25958 FILLER_68_1240
*25959 FILLER_68_1243
*25960 FILLER_68_1246
*25961 FILLER_68_1249
*25962 FILLER_68_1252
*25963 FILLER_68_1255
*25964 FILLER_68_1258
*25965 FILLER_68_1261
*25966 FILLER_68_1264
*25967 FILLER_68_1267
*25968 FILLER_68_1270
*25969 FILLER_68_1273
*25970 FILLER_68_1276
*25971 FILLER_68_1279
*25972 FILLER_68_1282
*25973 FILLER_68_1285
*25974 FILLER_68_1288
*25975 FILLER_68_1290
*25976 FILLER_68_1293
*25977 FILLER_68_1296
*25978 FILLER_68_1299
*25979 FILLER_68_1302
*25980 FILLER_68_1305
*25981 FILLER_68_1308
*25982 FILLER_68_1311
*25983 FILLER_68_1314
*25984 FILLER_68_1317
*25985 FILLER_68_1320
*25986 FILLER_68_1323
*25987 FILLER_68_1326
*25988 FILLER_68_1329
*25989 FILLER_68_1332
*25990 FILLER_68_1335
*25991 FILLER_68_1338
*25992 FILLER_68_1341
*25993 FILLER_68_1344
*25994 FILLER_68_1346
*25995 FILLER_68_1349
*25996 FILLER_68_1352
*25997 FILLER_68_1355
*25998 FILLER_68_1358
*25999 FILLER_68_1361
*26000 FILLER_68_15
*26001 FILLER_68_18
*26002 FILLER_68_21
*26003 FILLER_68_24
*26004 FILLER_68_27
*26005 FILLER_68_29
*26006 FILLER_68_3
*26007 FILLER_68_32
*26008 FILLER_68_35
*26009 FILLER_68_38
*26010 FILLER_68_41
*26011 FILLER_68_52
*26012 FILLER_68_55
*26013 FILLER_68_58
*26014 FILLER_68_6
*26015 FILLER_68_61
*26016 FILLER_68_64
*26017 FILLER_68_67
*26018 FILLER_68_70
*26019 FILLER_68_73
*26020 FILLER_68_76
*26021 FILLER_68_79
*26022 FILLER_68_82
*26023 FILLER_68_85
*26024 FILLER_68_88
*26025 FILLER_68_9
*26026 FILLER_68_91
*26027 FILLER_68_94
*26028 FILLER_68_97
*26029 FILLER_69_102
*26030 FILLER_69_105
*26031 FILLER_69_108
*26032 FILLER_69_111
*26033 FILLER_69_113
*26034 FILLER_69_12
*26035 FILLER_69_1208
*26036 FILLER_69_1211
*26037 FILLER_69_1214
*26038 FILLER_69_1217
*26039 FILLER_69_1220
*26040 FILLER_69_1223
*26041 FILLER_69_1226
*26042 FILLER_69_1229
*26043 FILLER_69_1232
*26044 FILLER_69_1235
*26045 FILLER_69_1238
*26046 FILLER_69_1241
*26047 FILLER_69_1244
*26048 FILLER_69_1247
*26049 FILLER_69_1250
*26050 FILLER_69_1253
*26051 FILLER_69_1256
*26052 FILLER_69_1259
*26053 FILLER_69_1262
*26054 FILLER_69_1265
*26055 FILLER_69_1268
*26056 FILLER_69_1271
*26057 FILLER_69_1274
*26058 FILLER_69_1277
*26059 FILLER_69_1280
*26060 FILLER_69_1283
*26061 FILLER_69_1286
*26062 FILLER_69_1289
*26063 FILLER_69_1292
*26064 FILLER_69_1295
*26065 FILLER_69_1298
*26066 FILLER_69_1301
*26067 FILLER_69_1304
*26068 FILLER_69_1307
*26069 FILLER_69_1310
*26070 FILLER_69_1313
*26071 FILLER_69_1316
*26072 FILLER_69_1318
*26073 FILLER_69_1321
*26074 FILLER_69_1324
*26075 FILLER_69_1327
*26076 FILLER_69_1330
*26077 FILLER_69_1333
*26078 FILLER_69_1336
*26079 FILLER_69_1339
*26080 FILLER_69_1342
*26081 FILLER_69_1345
*26082 FILLER_69_1348
*26083 FILLER_69_1351
*26084 FILLER_69_1354
*26085 FILLER_69_1357
*26086 FILLER_69_1360
*26087 FILLER_69_1363
*26088 FILLER_69_15
*26089 FILLER_69_22
*26090 FILLER_69_25
*26091 FILLER_69_28
*26092 FILLER_69_3
*26093 FILLER_69_31
*26094 FILLER_69_34
*26095 FILLER_69_37
*26096 FILLER_69_40
*26097 FILLER_69_52
*26098 FILLER_69_55
*26099 FILLER_69_57
*26100 FILLER_69_6
*26101 FILLER_69_60
*26102 FILLER_69_63
*26103 FILLER_69_66
*26104 FILLER_69_69
*26105 FILLER_69_72
*26106 FILLER_69_75
*26107 FILLER_69_78
*26108 FILLER_69_81
*26109 FILLER_69_84
*26110 FILLER_69_87
*26111 FILLER_69_9
*26112 FILLER_69_90
*26113 FILLER_69_93
*26114 FILLER_69_96
*26115 FILLER_69_99
*26116 FILLER_6_100
*26117 FILLER_6_1002
*26118 FILLER_6_1005
*26119 FILLER_6_1008
*26120 FILLER_6_1011
*26121 FILLER_6_1014
*26122 FILLER_6_1017
*26123 FILLER_6_1020
*26124 FILLER_6_1023
*26125 FILLER_6_1026
*26126 FILLER_6_1029
*26127 FILLER_6_103
*26128 FILLER_6_1032
*26129 FILLER_6_1035
*26130 FILLER_6_1037
*26131 FILLER_6_1040
*26132 FILLER_6_1043
*26133 FILLER_6_1046
*26134 FILLER_6_1049
*26135 FILLER_6_1052
*26136 FILLER_6_1055
*26137 FILLER_6_1058
*26138 FILLER_6_106
*26139 FILLER_6_1061
*26140 FILLER_6_1064
*26141 FILLER_6_1067
*26142 FILLER_6_1070
*26143 FILLER_6_1073
*26144 FILLER_6_1076
*26145 FILLER_6_1079
*26146 FILLER_6_1082
*26147 FILLER_6_1085
*26148 FILLER_6_1088
*26149 FILLER_6_109
*26150 FILLER_6_1091
*26151 FILLER_6_1093
*26152 FILLER_6_1096
*26153 FILLER_6_1099
*26154 FILLER_6_1102
*26155 FILLER_6_1105
*26156 FILLER_6_1108
*26157 FILLER_6_1111
*26158 FILLER_6_1114
*26159 FILLER_6_1117
*26160 FILLER_6_112
*26161 FILLER_6_1120
*26162 FILLER_6_1123
*26163 FILLER_6_1126
*26164 FILLER_6_1129
*26165 FILLER_6_1132
*26166 FILLER_6_1135
*26167 FILLER_6_1138
*26168 FILLER_6_1141
*26169 FILLER_6_1144
*26170 FILLER_6_1147
*26171 FILLER_6_1149
*26172 FILLER_6_115
*26173 FILLER_6_1152
*26174 FILLER_6_1155
*26175 FILLER_6_1158
*26176 FILLER_6_1161
*26177 FILLER_6_1164
*26178 FILLER_6_1167
*26179 FILLER_6_1170
*26180 FILLER_6_1173
*26181 FILLER_6_1176
*26182 FILLER_6_1179
*26183 FILLER_6_118
*26184 FILLER_6_1182
*26185 FILLER_6_1185
*26186 FILLER_6_1188
*26187 FILLER_6_1191
*26188 FILLER_6_1194
*26189 FILLER_6_1197
*26190 FILLER_6_12
*26191 FILLER_6_1200
*26192 FILLER_6_1203
*26193 FILLER_6_1205
*26194 FILLER_6_1208
*26195 FILLER_6_121
*26196 FILLER_6_1211
*26197 FILLER_6_1214
*26198 FILLER_6_1217
*26199 FILLER_6_1220
*26200 FILLER_6_1223
*26201 FILLER_6_1226
*26202 FILLER_6_1229
*26203 FILLER_6_1232
*26204 FILLER_6_1235
*26205 FILLER_6_1238
*26206 FILLER_6_124
*26207 FILLER_6_1241
*26208 FILLER_6_1244
*26209 FILLER_6_1247
*26210 FILLER_6_1250
*26211 FILLER_6_1253
*26212 FILLER_6_1256
*26213 FILLER_6_1259
*26214 FILLER_6_1261
*26215 FILLER_6_1264
*26216 FILLER_6_1267
*26217 FILLER_6_127
*26218 FILLER_6_1270
*26219 FILLER_6_1273
*26220 FILLER_6_1276
*26221 FILLER_6_1279
*26222 FILLER_6_1282
*26223 FILLER_6_1285
*26224 FILLER_6_1288
*26225 FILLER_6_1291
*26226 FILLER_6_1294
*26227 FILLER_6_1297
*26228 FILLER_6_130
*26229 FILLER_6_1300
*26230 FILLER_6_1303
*26231 FILLER_6_1306
*26232 FILLER_6_1309
*26233 FILLER_6_1312
*26234 FILLER_6_1315
*26235 FILLER_6_1317
*26236 FILLER_6_1320
*26237 FILLER_6_1323
*26238 FILLER_6_1326
*26239 FILLER_6_1329
*26240 FILLER_6_133
*26241 FILLER_6_1332
*26242 FILLER_6_1335
*26243 FILLER_6_1338
*26244 FILLER_6_1341
*26245 FILLER_6_1344
*26246 FILLER_6_1347
*26247 FILLER_6_1350
*26248 FILLER_6_1353
*26249 FILLER_6_1356
*26250 FILLER_6_1359
*26251 FILLER_6_136
*26252 FILLER_6_1362
*26253 FILLER_6_139
*26254 FILLER_6_141
*26255 FILLER_6_144
*26256 FILLER_6_147
*26257 FILLER_6_15
*26258 FILLER_6_150
*26259 FILLER_6_153
*26260 FILLER_6_156
*26261 FILLER_6_159
*26262 FILLER_6_162
*26263 FILLER_6_165
*26264 FILLER_6_168
*26265 FILLER_6_171
*26266 FILLER_6_174
*26267 FILLER_6_177
*26268 FILLER_6_18
*26269 FILLER_6_180
*26270 FILLER_6_183
*26271 FILLER_6_186
*26272 FILLER_6_189
*26273 FILLER_6_192
*26274 FILLER_6_195
*26275 FILLER_6_197
*26276 FILLER_6_200
*26277 FILLER_6_203
*26278 FILLER_6_206
*26279 FILLER_6_209
*26280 FILLER_6_21
*26281 FILLER_6_212
*26282 FILLER_6_215
*26283 FILLER_6_218
*26284 FILLER_6_221
*26285 FILLER_6_224
*26286 FILLER_6_227
*26287 FILLER_6_230
*26288 FILLER_6_233
*26289 FILLER_6_236
*26290 FILLER_6_239
*26291 FILLER_6_24
*26292 FILLER_6_242
*26293 FILLER_6_245
*26294 FILLER_6_248
*26295 FILLER_6_251
*26296 FILLER_6_253
*26297 FILLER_6_256
*26298 FILLER_6_259
*26299 FILLER_6_262
*26300 FILLER_6_265
*26301 FILLER_6_268
*26302 FILLER_6_27
*26303 FILLER_6_271
*26304 FILLER_6_274
*26305 FILLER_6_277
*26306 FILLER_6_280
*26307 FILLER_6_283
*26308 FILLER_6_286
*26309 FILLER_6_289
*26310 FILLER_6_29
*26311 FILLER_6_292
*26312 FILLER_6_295
*26313 FILLER_6_298
*26314 FILLER_6_3
*26315 FILLER_6_301
*26316 FILLER_6_304
*26317 FILLER_6_307
*26318 FILLER_6_309
*26319 FILLER_6_312
*26320 FILLER_6_315
*26321 FILLER_6_318
*26322 FILLER_6_32
*26323 FILLER_6_321
*26324 FILLER_6_324
*26325 FILLER_6_327
*26326 FILLER_6_330
*26327 FILLER_6_333
*26328 FILLER_6_336
*26329 FILLER_6_339
*26330 FILLER_6_342
*26331 FILLER_6_345
*26332 FILLER_6_348
*26333 FILLER_6_35
*26334 FILLER_6_351
*26335 FILLER_6_354
*26336 FILLER_6_357
*26337 FILLER_6_360
*26338 FILLER_6_363
*26339 FILLER_6_365
*26340 FILLER_6_368
*26341 FILLER_6_371
*26342 FILLER_6_374
*26343 FILLER_6_377
*26344 FILLER_6_38
*26345 FILLER_6_380
*26346 FILLER_6_383
*26347 FILLER_6_386
*26348 FILLER_6_389
*26349 FILLER_6_392
*26350 FILLER_6_395
*26351 FILLER_6_398
*26352 FILLER_6_401
*26353 FILLER_6_404
*26354 FILLER_6_407
*26355 FILLER_6_41
*26356 FILLER_6_410
*26357 FILLER_6_413
*26358 FILLER_6_416
*26359 FILLER_6_419
*26360 FILLER_6_421
*26361 FILLER_6_424
*26362 FILLER_6_427
*26363 FILLER_6_430
*26364 FILLER_6_433
*26365 FILLER_6_436
*26366 FILLER_6_439
*26367 FILLER_6_44
*26368 FILLER_6_442
*26369 FILLER_6_445
*26370 FILLER_6_448
*26371 FILLER_6_451
*26372 FILLER_6_454
*26373 FILLER_6_457
*26374 FILLER_6_460
*26375 FILLER_6_463
*26376 FILLER_6_466
*26377 FILLER_6_469
*26378 FILLER_6_47
*26379 FILLER_6_472
*26380 FILLER_6_475
*26381 FILLER_6_477
*26382 FILLER_6_480
*26383 FILLER_6_483
*26384 FILLER_6_486
*26385 FILLER_6_489
*26386 FILLER_6_492
*26387 FILLER_6_495
*26388 FILLER_6_498
*26389 FILLER_6_50
*26390 FILLER_6_501
*26391 FILLER_6_504
*26392 FILLER_6_507
*26393 FILLER_6_510
*26394 FILLER_6_513
*26395 FILLER_6_516
*26396 FILLER_6_519
*26397 FILLER_6_522
*26398 FILLER_6_525
*26399 FILLER_6_528
*26400 FILLER_6_53
*26401 FILLER_6_531
*26402 FILLER_6_533
*26403 FILLER_6_536
*26404 FILLER_6_539
*26405 FILLER_6_542
*26406 FILLER_6_545
*26407 FILLER_6_548
*26408 FILLER_6_551
*26409 FILLER_6_554
*26410 FILLER_6_557
*26411 FILLER_6_56
*26412 FILLER_6_560
*26413 FILLER_6_563
*26414 FILLER_6_566
*26415 FILLER_6_569
*26416 FILLER_6_572
*26417 FILLER_6_575
*26418 FILLER_6_578
*26419 FILLER_6_581
*26420 FILLER_6_584
*26421 FILLER_6_587
*26422 FILLER_6_589
*26423 FILLER_6_59
*26424 FILLER_6_592
*26425 FILLER_6_595
*26426 FILLER_6_598
*26427 FILLER_6_6
*26428 FILLER_6_601
*26429 FILLER_6_604
*26430 FILLER_6_607
*26431 FILLER_6_610
*26432 FILLER_6_613
*26433 FILLER_6_616
*26434 FILLER_6_619
*26435 FILLER_6_62
*26436 FILLER_6_622
*26437 FILLER_6_625
*26438 FILLER_6_628
*26439 FILLER_6_631
*26440 FILLER_6_634
*26441 FILLER_6_637
*26442 FILLER_6_640
*26443 FILLER_6_643
*26444 FILLER_6_645
*26445 FILLER_6_648
*26446 FILLER_6_65
*26447 FILLER_6_651
*26448 FILLER_6_654
*26449 FILLER_6_657
*26450 FILLER_6_660
*26451 FILLER_6_663
*26452 FILLER_6_666
*26453 FILLER_6_669
*26454 FILLER_6_672
*26455 FILLER_6_675
*26456 FILLER_6_678
*26457 FILLER_6_68
*26458 FILLER_6_681
*26459 FILLER_6_684
*26460 FILLER_6_687
*26461 FILLER_6_690
*26462 FILLER_6_693
*26463 FILLER_6_696
*26464 FILLER_6_699
*26465 FILLER_6_701
*26466 FILLER_6_704
*26467 FILLER_6_707
*26468 FILLER_6_71
*26469 FILLER_6_710
*26470 FILLER_6_713
*26471 FILLER_6_716
*26472 FILLER_6_719
*26473 FILLER_6_722
*26474 FILLER_6_725
*26475 FILLER_6_728
*26476 FILLER_6_731
*26477 FILLER_6_734
*26478 FILLER_6_737
*26479 FILLER_6_74
*26480 FILLER_6_740
*26481 FILLER_6_743
*26482 FILLER_6_746
*26483 FILLER_6_749
*26484 FILLER_6_752
*26485 FILLER_6_755
*26486 FILLER_6_757
*26487 FILLER_6_760
*26488 FILLER_6_763
*26489 FILLER_6_766
*26490 FILLER_6_769
*26491 FILLER_6_77
*26492 FILLER_6_772
*26493 FILLER_6_775
*26494 FILLER_6_778
*26495 FILLER_6_781
*26496 FILLER_6_784
*26497 FILLER_6_787
*26498 FILLER_6_790
*26499 FILLER_6_793
*26500 FILLER_6_796
*26501 FILLER_6_799
*26502 FILLER_6_80
*26503 FILLER_6_802
*26504 FILLER_6_805
*26505 FILLER_6_808
*26506 FILLER_6_811
*26507 FILLER_6_813
*26508 FILLER_6_816
*26509 FILLER_6_819
*26510 FILLER_6_822
*26511 FILLER_6_825
*26512 FILLER_6_828
*26513 FILLER_6_83
*26514 FILLER_6_831
*26515 FILLER_6_834
*26516 FILLER_6_837
*26517 FILLER_6_840
*26518 FILLER_6_843
*26519 FILLER_6_846
*26520 FILLER_6_849
*26521 FILLER_6_85
*26522 FILLER_6_852
*26523 FILLER_6_855
*26524 FILLER_6_858
*26525 FILLER_6_861
*26526 FILLER_6_864
*26527 FILLER_6_867
*26528 FILLER_6_869
*26529 FILLER_6_872
*26530 FILLER_6_875
*26531 FILLER_6_878
*26532 FILLER_6_88
*26533 FILLER_6_881
*26534 FILLER_6_884
*26535 FILLER_6_887
*26536 FILLER_6_890
*26537 FILLER_6_893
*26538 FILLER_6_896
*26539 FILLER_6_899
*26540 FILLER_6_9
*26541 FILLER_6_902
*26542 FILLER_6_905
*26543 FILLER_6_908
*26544 FILLER_6_91
*26545 FILLER_6_911
*26546 FILLER_6_914
*26547 FILLER_6_917
*26548 FILLER_6_920
*26549 FILLER_6_923
*26550 FILLER_6_925
*26551 FILLER_6_928
*26552 FILLER_6_931
*26553 FILLER_6_934
*26554 FILLER_6_937
*26555 FILLER_6_94
*26556 FILLER_6_940
*26557 FILLER_6_943
*26558 FILLER_6_946
*26559 FILLER_6_949
*26560 FILLER_6_952
*26561 FILLER_6_955
*26562 FILLER_6_958
*26563 FILLER_6_961
*26564 FILLER_6_964
*26565 FILLER_6_967
*26566 FILLER_6_97
*26567 FILLER_6_970
*26568 FILLER_6_973
*26569 FILLER_6_976
*26570 FILLER_6_979
*26571 FILLER_6_981
*26572 FILLER_6_984
*26573 FILLER_6_987
*26574 FILLER_6_990
*26575 FILLER_6_993
*26576 FILLER_6_996
*26577 FILLER_6_999
*26578 FILLER_70_100
*26579 FILLER_70_103
*26580 FILLER_70_106
*26581 FILLER_70_109
*26582 FILLER_70_112
*26583 FILLER_70_12
*26584 FILLER_70_1208
*26585 FILLER_70_1211
*26586 FILLER_70_1214
*26587 FILLER_70_1217
*26588 FILLER_70_1220
*26589 FILLER_70_1223
*26590 FILLER_70_1226
*26591 FILLER_70_1229
*26592 FILLER_70_1232
*26593 FILLER_70_1234
*26594 FILLER_70_1237
*26595 FILLER_70_1240
*26596 FILLER_70_1243
*26597 FILLER_70_1246
*26598 FILLER_70_1249
*26599 FILLER_70_1252
*26600 FILLER_70_1255
*26601 FILLER_70_1258
*26602 FILLER_70_1261
*26603 FILLER_70_1264
*26604 FILLER_70_1267
*26605 FILLER_70_1270
*26606 FILLER_70_1273
*26607 FILLER_70_1276
*26608 FILLER_70_1279
*26609 FILLER_70_1282
*26610 FILLER_70_1285
*26611 FILLER_70_1288
*26612 FILLER_70_1290
*26613 FILLER_70_1293
*26614 FILLER_70_1296
*26615 FILLER_70_1299
*26616 FILLER_70_1302
*26617 FILLER_70_1305
*26618 FILLER_70_1308
*26619 FILLER_70_1311
*26620 FILLER_70_1314
*26621 FILLER_70_1317
*26622 FILLER_70_1320
*26623 FILLER_70_1323
*26624 FILLER_70_1326
*26625 FILLER_70_1329
*26626 FILLER_70_1332
*26627 FILLER_70_1335
*26628 FILLER_70_1338
*26629 FILLER_70_1341
*26630 FILLER_70_1344
*26631 FILLER_70_1346
*26632 FILLER_70_1349
*26633 FILLER_70_1352
*26634 FILLER_70_1355
*26635 FILLER_70_1358
*26636 FILLER_70_1361
*26637 FILLER_70_15
*26638 FILLER_70_18
*26639 FILLER_70_21
*26640 FILLER_70_24
*26641 FILLER_70_27
*26642 FILLER_70_29
*26643 FILLER_70_3
*26644 FILLER_70_32
*26645 FILLER_70_35
*26646 FILLER_70_38
*26647 FILLER_70_41
*26648 FILLER_70_44
*26649 FILLER_70_47
*26650 FILLER_70_50
*26651 FILLER_70_53
*26652 FILLER_70_56
*26653 FILLER_70_59
*26654 FILLER_70_6
*26655 FILLER_70_62
*26656 FILLER_70_65
*26657 FILLER_70_68
*26658 FILLER_70_71
*26659 FILLER_70_74
*26660 FILLER_70_77
*26661 FILLER_70_80
*26662 FILLER_70_83
*26663 FILLER_70_85
*26664 FILLER_70_88
*26665 FILLER_70_9
*26666 FILLER_70_91
*26667 FILLER_70_94
*26668 FILLER_70_97
*26669 FILLER_71_102
*26670 FILLER_71_105
*26671 FILLER_71_108
*26672 FILLER_71_111
*26673 FILLER_71_113
*26674 FILLER_71_12
*26675 FILLER_71_1208
*26676 FILLER_71_1211
*26677 FILLER_71_1214
*26678 FILLER_71_1217
*26679 FILLER_71_1220
*26680 FILLER_71_1223
*26681 FILLER_71_1226
*26682 FILLER_71_1229
*26683 FILLER_71_1232
*26684 FILLER_71_1235
*26685 FILLER_71_1238
*26686 FILLER_71_1241
*26687 FILLER_71_1244
*26688 FILLER_71_1247
*26689 FILLER_71_1250
*26690 FILLER_71_1253
*26691 FILLER_71_1256
*26692 FILLER_71_1259
*26693 FILLER_71_1262
*26694 FILLER_71_1265
*26695 FILLER_71_1268
*26696 FILLER_71_1271
*26697 FILLER_71_1274
*26698 FILLER_71_1277
*26699 FILLER_71_1280
*26700 FILLER_71_1283
*26701 FILLER_71_1286
*26702 FILLER_71_1289
*26703 FILLER_71_1292
*26704 FILLER_71_1295
*26705 FILLER_71_1298
*26706 FILLER_71_1301
*26707 FILLER_71_1304
*26708 FILLER_71_1307
*26709 FILLER_71_1310
*26710 FILLER_71_1313
*26711 FILLER_71_1316
*26712 FILLER_71_1318
*26713 FILLER_71_1321
*26714 FILLER_71_1324
*26715 FILLER_71_1327
*26716 FILLER_71_1330
*26717 FILLER_71_1333
*26718 FILLER_71_1336
*26719 FILLER_71_1339
*26720 FILLER_71_1342
*26721 FILLER_71_1345
*26722 FILLER_71_1348
*26723 FILLER_71_1351
*26724 FILLER_71_1354
*26725 FILLER_71_1357
*26726 FILLER_71_1360
*26727 FILLER_71_1363
*26728 FILLER_71_17
*26729 FILLER_71_20
*26730 FILLER_71_23
*26731 FILLER_71_3
*26732 FILLER_71_32
*26733 FILLER_71_35
*26734 FILLER_71_38
*26735 FILLER_71_41
*26736 FILLER_71_44
*26737 FILLER_71_47
*26738 FILLER_71_50
*26739 FILLER_71_53
*26740 FILLER_71_57
*26741 FILLER_71_6
*26742 FILLER_71_60
*26743 FILLER_71_63
*26744 FILLER_71_66
*26745 FILLER_71_69
*26746 FILLER_71_72
*26747 FILLER_71_75
*26748 FILLER_71_78
*26749 FILLER_71_81
*26750 FILLER_71_84
*26751 FILLER_71_87
*26752 FILLER_71_9
*26753 FILLER_71_90
*26754 FILLER_71_93
*26755 FILLER_71_96
*26756 FILLER_71_99
*26757 FILLER_72_100
*26758 FILLER_72_103
*26759 FILLER_72_106
*26760 FILLER_72_109
*26761 FILLER_72_112
*26762 FILLER_72_12
*26763 FILLER_72_1208
*26764 FILLER_72_1211
*26765 FILLER_72_1214
*26766 FILLER_72_1217
*26767 FILLER_72_1220
*26768 FILLER_72_1223
*26769 FILLER_72_1226
*26770 FILLER_72_1229
*26771 FILLER_72_1232
*26772 FILLER_72_1234
*26773 FILLER_72_1237
*26774 FILLER_72_1240
*26775 FILLER_72_1243
*26776 FILLER_72_1246
*26777 FILLER_72_1249
*26778 FILLER_72_1252
*26779 FILLER_72_1255
*26780 FILLER_72_1258
*26781 FILLER_72_1261
*26782 FILLER_72_1264
*26783 FILLER_72_1267
*26784 FILLER_72_1270
*26785 FILLER_72_1273
*26786 FILLER_72_1276
*26787 FILLER_72_1279
*26788 FILLER_72_1282
*26789 FILLER_72_1285
*26790 FILLER_72_1288
*26791 FILLER_72_1290
*26792 FILLER_72_1293
*26793 FILLER_72_1296
*26794 FILLER_72_1299
*26795 FILLER_72_1302
*26796 FILLER_72_1305
*26797 FILLER_72_1308
*26798 FILLER_72_1311
*26799 FILLER_72_1314
*26800 FILLER_72_1317
*26801 FILLER_72_1320
*26802 FILLER_72_1323
*26803 FILLER_72_1326
*26804 FILLER_72_1329
*26805 FILLER_72_1332
*26806 FILLER_72_1335
*26807 FILLER_72_1338
*26808 FILLER_72_1341
*26809 FILLER_72_1344
*26810 FILLER_72_1346
*26811 FILLER_72_1349
*26812 FILLER_72_1352
*26813 FILLER_72_1355
*26814 FILLER_72_1358
*26815 FILLER_72_1361
*26816 FILLER_72_15
*26817 FILLER_72_25
*26818 FILLER_72_29
*26819 FILLER_72_3
*26820 FILLER_72_32
*26821 FILLER_72_35
*26822 FILLER_72_38
*26823 FILLER_72_41
*26824 FILLER_72_52
*26825 FILLER_72_55
*26826 FILLER_72_58
*26827 FILLER_72_6
*26828 FILLER_72_61
*26829 FILLER_72_64
*26830 FILLER_72_67
*26831 FILLER_72_70
*26832 FILLER_72_73
*26833 FILLER_72_76
*26834 FILLER_72_79
*26835 FILLER_72_82
*26836 FILLER_72_85
*26837 FILLER_72_88
*26838 FILLER_72_9
*26839 FILLER_72_91
*26840 FILLER_72_94
*26841 FILLER_72_97
*26842 FILLER_73_102
*26843 FILLER_73_105
*26844 FILLER_73_108
*26845 FILLER_73_111
*26846 FILLER_73_113
*26847 FILLER_73_12
*26848 FILLER_73_1208
*26849 FILLER_73_1211
*26850 FILLER_73_1214
*26851 FILLER_73_1217
*26852 FILLER_73_1220
*26853 FILLER_73_1223
*26854 FILLER_73_1226
*26855 FILLER_73_1229
*26856 FILLER_73_1232
*26857 FILLER_73_1235
*26858 FILLER_73_1238
*26859 FILLER_73_1241
*26860 FILLER_73_1244
*26861 FILLER_73_1247
*26862 FILLER_73_1250
*26863 FILLER_73_1253
*26864 FILLER_73_1256
*26865 FILLER_73_1259
*26866 FILLER_73_1262
*26867 FILLER_73_1265
*26868 FILLER_73_1268
*26869 FILLER_73_1271
*26870 FILLER_73_1274
*26871 FILLER_73_1277
*26872 FILLER_73_1280
*26873 FILLER_73_1283
*26874 FILLER_73_1286
*26875 FILLER_73_1289
*26876 FILLER_73_1292
*26877 FILLER_73_1295
*26878 FILLER_73_1298
*26879 FILLER_73_1301
*26880 FILLER_73_1304
*26881 FILLER_73_1307
*26882 FILLER_73_1310
*26883 FILLER_73_1313
*26884 FILLER_73_1316
*26885 FILLER_73_1318
*26886 FILLER_73_1321
*26887 FILLER_73_1324
*26888 FILLER_73_1327
*26889 FILLER_73_1330
*26890 FILLER_73_1333
*26891 FILLER_73_1336
*26892 FILLER_73_1339
*26893 FILLER_73_1342
*26894 FILLER_73_1345
*26895 FILLER_73_1348
*26896 FILLER_73_1351
*26897 FILLER_73_1354
*26898 FILLER_73_1357
*26899 FILLER_73_1360
*26900 FILLER_73_1363
*26901 FILLER_73_15
*26902 FILLER_73_18
*26903 FILLER_73_21
*26904 FILLER_73_24
*26905 FILLER_73_27
*26906 FILLER_73_3
*26907 FILLER_73_30
*26908 FILLER_73_33
*26909 FILLER_73_36
*26910 FILLER_73_39
*26911 FILLER_73_42
*26912 FILLER_73_45
*26913 FILLER_73_48
*26914 FILLER_73_51
*26915 FILLER_73_54
*26916 FILLER_73_57
*26917 FILLER_73_6
*26918 FILLER_73_60
*26919 FILLER_73_63
*26920 FILLER_73_66
*26921 FILLER_73_69
*26922 FILLER_73_72
*26923 FILLER_73_75
*26924 FILLER_73_78
*26925 FILLER_73_81
*26926 FILLER_73_84
*26927 FILLER_73_87
*26928 FILLER_73_9
*26929 FILLER_73_90
*26930 FILLER_73_93
*26931 FILLER_73_96
*26932 FILLER_73_99
*26933 FILLER_74_100
*26934 FILLER_74_103
*26935 FILLER_74_106
*26936 FILLER_74_109
*26937 FILLER_74_112
*26938 FILLER_74_12
*26939 FILLER_74_1208
*26940 FILLER_74_1211
*26941 FILLER_74_1214
*26942 FILLER_74_1217
*26943 FILLER_74_1220
*26944 FILLER_74_1223
*26945 FILLER_74_1226
*26946 FILLER_74_1229
*26947 FILLER_74_1232
*26948 FILLER_74_1234
*26949 FILLER_74_1237
*26950 FILLER_74_1240
*26951 FILLER_74_1243
*26952 FILLER_74_1246
*26953 FILLER_74_1249
*26954 FILLER_74_1252
*26955 FILLER_74_1255
*26956 FILLER_74_1258
*26957 FILLER_74_1261
*26958 FILLER_74_1264
*26959 FILLER_74_1267
*26960 FILLER_74_1270
*26961 FILLER_74_1273
*26962 FILLER_74_1276
*26963 FILLER_74_1279
*26964 FILLER_74_1282
*26965 FILLER_74_1285
*26966 FILLER_74_1288
*26967 FILLER_74_1290
*26968 FILLER_74_1293
*26969 FILLER_74_1296
*26970 FILLER_74_1299
*26971 FILLER_74_1302
*26972 FILLER_74_1305
*26973 FILLER_74_1308
*26974 FILLER_74_1311
*26975 FILLER_74_1314
*26976 FILLER_74_1317
*26977 FILLER_74_1320
*26978 FILLER_74_1323
*26979 FILLER_74_1326
*26980 FILLER_74_1329
*26981 FILLER_74_1332
*26982 FILLER_74_1335
*26983 FILLER_74_1338
*26984 FILLER_74_1341
*26985 FILLER_74_1344
*26986 FILLER_74_1346
*26987 FILLER_74_1349
*26988 FILLER_74_1352
*26989 FILLER_74_1355
*26990 FILLER_74_1358
*26991 FILLER_74_1361
*26992 FILLER_74_15
*26993 FILLER_74_18
*26994 FILLER_74_21
*26995 FILLER_74_24
*26996 FILLER_74_27
*26997 FILLER_74_29
*26998 FILLER_74_3
*26999 FILLER_74_32
*27000 FILLER_74_35
*27001 FILLER_74_38
*27002 FILLER_74_41
*27003 FILLER_74_52
*27004 FILLER_74_55
*27005 FILLER_74_58
*27006 FILLER_74_6
*27007 FILLER_74_61
*27008 FILLER_74_64
*27009 FILLER_74_67
*27010 FILLER_74_70
*27011 FILLER_74_73
*27012 FILLER_74_76
*27013 FILLER_74_79
*27014 FILLER_74_82
*27015 FILLER_74_85
*27016 FILLER_74_88
*27017 FILLER_74_9
*27018 FILLER_74_91
*27019 FILLER_74_94
*27020 FILLER_74_97
*27021 FILLER_75_100
*27022 FILLER_75_103
*27023 FILLER_75_106
*27024 FILLER_75_109
*27025 FILLER_75_113
*27026 FILLER_75_1208
*27027 FILLER_75_1211
*27028 FILLER_75_1214
*27029 FILLER_75_1217
*27030 FILLER_75_1220
*27031 FILLER_75_1223
*27032 FILLER_75_1226
*27033 FILLER_75_1229
*27034 FILLER_75_1232
*27035 FILLER_75_1235
*27036 FILLER_75_1238
*27037 FILLER_75_1241
*27038 FILLER_75_1244
*27039 FILLER_75_1247
*27040 FILLER_75_1250
*27041 FILLER_75_1253
*27042 FILLER_75_1256
*27043 FILLER_75_1259
*27044 FILLER_75_1262
*27045 FILLER_75_1265
*27046 FILLER_75_1268
*27047 FILLER_75_1271
*27048 FILLER_75_1274
*27049 FILLER_75_1277
*27050 FILLER_75_1280
*27051 FILLER_75_1283
*27052 FILLER_75_1286
*27053 FILLER_75_1289
*27054 FILLER_75_1292
*27055 FILLER_75_1295
*27056 FILLER_75_1298
*27057 FILLER_75_1301
*27058 FILLER_75_1304
*27059 FILLER_75_1307
*27060 FILLER_75_1310
*27061 FILLER_75_1313
*27062 FILLER_75_1316
*27063 FILLER_75_1318
*27064 FILLER_75_1321
*27065 FILLER_75_1324
*27066 FILLER_75_1327
*27067 FILLER_75_1330
*27068 FILLER_75_1333
*27069 FILLER_75_1336
*27070 FILLER_75_1339
*27071 FILLER_75_1342
*27072 FILLER_75_1345
*27073 FILLER_75_1348
*27074 FILLER_75_1351
*27075 FILLER_75_1354
*27076 FILLER_75_1357
*27077 FILLER_75_1360
*27078 FILLER_75_1363
*27079 FILLER_75_19
*27080 FILLER_75_27
*27081 FILLER_75_3
*27082 FILLER_75_30
*27083 FILLER_75_33
*27084 FILLER_75_36
*27085 FILLER_75_39
*27086 FILLER_75_42
*27087 FILLER_75_45
*27088 FILLER_75_48
*27089 FILLER_75_51
*27090 FILLER_75_54
*27091 FILLER_75_57
*27092 FILLER_75_6
*27093 FILLER_75_60
*27094 FILLER_75_63
*27095 FILLER_75_66
*27096 FILLER_75_69
*27097 FILLER_75_72
*27098 FILLER_75_75
*27099 FILLER_75_9
*27100 FILLER_75_97
*27101 FILLER_76_100
*27102 FILLER_76_103
*27103 FILLER_76_106
*27104 FILLER_76_109
*27105 FILLER_76_112
*27106 FILLER_76_1208
*27107 FILLER_76_1211
*27108 FILLER_76_1214
*27109 FILLER_76_1217
*27110 FILLER_76_1220
*27111 FILLER_76_1223
*27112 FILLER_76_1226
*27113 FILLER_76_1229
*27114 FILLER_76_1232
*27115 FILLER_76_1234
*27116 FILLER_76_1237
*27117 FILLER_76_1240
*27118 FILLER_76_1243
*27119 FILLER_76_1246
*27120 FILLER_76_1249
*27121 FILLER_76_1252
*27122 FILLER_76_1255
*27123 FILLER_76_1258
*27124 FILLER_76_1261
*27125 FILLER_76_1264
*27126 FILLER_76_1267
*27127 FILLER_76_1270
*27128 FILLER_76_1273
*27129 FILLER_76_1276
*27130 FILLER_76_1279
*27131 FILLER_76_1282
*27132 FILLER_76_1285
*27133 FILLER_76_1288
*27134 FILLER_76_1290
*27135 FILLER_76_1293
*27136 FILLER_76_1296
*27137 FILLER_76_1299
*27138 FILLER_76_1302
*27139 FILLER_76_1305
*27140 FILLER_76_1308
*27141 FILLER_76_1311
*27142 FILLER_76_1314
*27143 FILLER_76_1317
*27144 FILLER_76_1320
*27145 FILLER_76_1323
*27146 FILLER_76_1326
*27147 FILLER_76_1329
*27148 FILLER_76_1332
*27149 FILLER_76_1335
*27150 FILLER_76_1338
*27151 FILLER_76_1341
*27152 FILLER_76_1344
*27153 FILLER_76_1346
*27154 FILLER_76_1349
*27155 FILLER_76_1352
*27156 FILLER_76_1355
*27157 FILLER_76_1358
*27158 FILLER_76_1361
*27159 FILLER_76_17
*27160 FILLER_76_20
*27161 FILLER_76_23
*27162 FILLER_76_26
*27163 FILLER_76_29
*27164 FILLER_76_3
*27165 FILLER_76_32
*27166 FILLER_76_35
*27167 FILLER_76_38
*27168 FILLER_76_41
*27169 FILLER_76_44
*27170 FILLER_76_47
*27171 FILLER_76_50
*27172 FILLER_76_53
*27173 FILLER_76_56
*27174 FILLER_76_59
*27175 FILLER_76_6
*27176 FILLER_76_62
*27177 FILLER_76_65
*27178 FILLER_76_68
*27179 FILLER_76_71
*27180 FILLER_76_74
*27181 FILLER_76_77
*27182 FILLER_76_80
*27183 FILLER_76_83
*27184 FILLER_76_85
*27185 FILLER_76_88
*27186 FILLER_76_9
*27187 FILLER_76_91
*27188 FILLER_76_94
*27189 FILLER_76_97
*27190 FILLER_77_102
*27191 FILLER_77_105
*27192 FILLER_77_108
*27193 FILLER_77_111
*27194 FILLER_77_113
*27195 FILLER_77_12
*27196 FILLER_77_1208
*27197 FILLER_77_1211
*27198 FILLER_77_1214
*27199 FILLER_77_1217
*27200 FILLER_77_1220
*27201 FILLER_77_1223
*27202 FILLER_77_1226
*27203 FILLER_77_1229
*27204 FILLER_77_1232
*27205 FILLER_77_1235
*27206 FILLER_77_1238
*27207 FILLER_77_1241
*27208 FILLER_77_1244
*27209 FILLER_77_1247
*27210 FILLER_77_1250
*27211 FILLER_77_1253
*27212 FILLER_77_1256
*27213 FILLER_77_1259
*27214 FILLER_77_1262
*27215 FILLER_77_1265
*27216 FILLER_77_1268
*27217 FILLER_77_1271
*27218 FILLER_77_1274
*27219 FILLER_77_1277
*27220 FILLER_77_1280
*27221 FILLER_77_1283
*27222 FILLER_77_1286
*27223 FILLER_77_1289
*27224 FILLER_77_1292
*27225 FILLER_77_1295
*27226 FILLER_77_1298
*27227 FILLER_77_1301
*27228 FILLER_77_1304
*27229 FILLER_77_1307
*27230 FILLER_77_1310
*27231 FILLER_77_1313
*27232 FILLER_77_1316
*27233 FILLER_77_1318
*27234 FILLER_77_1321
*27235 FILLER_77_1324
*27236 FILLER_77_1327
*27237 FILLER_77_1330
*27238 FILLER_77_1333
*27239 FILLER_77_1336
*27240 FILLER_77_1339
*27241 FILLER_77_1342
*27242 FILLER_77_1345
*27243 FILLER_77_1348
*27244 FILLER_77_1351
*27245 FILLER_77_1354
*27246 FILLER_77_1357
*27247 FILLER_77_1360
*27248 FILLER_77_1363
*27249 FILLER_77_15
*27250 FILLER_77_18
*27251 FILLER_77_28
*27252 FILLER_77_3
*27253 FILLER_77_31
*27254 FILLER_77_34
*27255 FILLER_77_37
*27256 FILLER_77_40
*27257 FILLER_77_43
*27258 FILLER_77_46
*27259 FILLER_77_49
*27260 FILLER_77_52
*27261 FILLER_77_55
*27262 FILLER_77_57
*27263 FILLER_77_6
*27264 FILLER_77_60
*27265 FILLER_77_63
*27266 FILLER_77_66
*27267 FILLER_77_69
*27268 FILLER_77_72
*27269 FILLER_77_75
*27270 FILLER_77_78
*27271 FILLER_77_81
*27272 FILLER_77_84
*27273 FILLER_77_87
*27274 FILLER_77_9
*27275 FILLER_77_90
*27276 FILLER_77_93
*27277 FILLER_77_96
*27278 FILLER_77_99
*27279 FILLER_78_100
*27280 FILLER_78_103
*27281 FILLER_78_106
*27282 FILLER_78_109
*27283 FILLER_78_112
*27284 FILLER_78_12
*27285 FILLER_78_1208
*27286 FILLER_78_1211
*27287 FILLER_78_1214
*27288 FILLER_78_1217
*27289 FILLER_78_1220
*27290 FILLER_78_1223
*27291 FILLER_78_1226
*27292 FILLER_78_1229
*27293 FILLER_78_1232
*27294 FILLER_78_1234
*27295 FILLER_78_1237
*27296 FILLER_78_1240
*27297 FILLER_78_1243
*27298 FILLER_78_1246
*27299 FILLER_78_1249
*27300 FILLER_78_1252
*27301 FILLER_78_1255
*27302 FILLER_78_1258
*27303 FILLER_78_1261
*27304 FILLER_78_1264
*27305 FILLER_78_1267
*27306 FILLER_78_1270
*27307 FILLER_78_1273
*27308 FILLER_78_1276
*27309 FILLER_78_1279
*27310 FILLER_78_1282
*27311 FILLER_78_1285
*27312 FILLER_78_1288
*27313 FILLER_78_1290
*27314 FILLER_78_1293
*27315 FILLER_78_1296
*27316 FILLER_78_1299
*27317 FILLER_78_1302
*27318 FILLER_78_1305
*27319 FILLER_78_1308
*27320 FILLER_78_1311
*27321 FILLER_78_1314
*27322 FILLER_78_1317
*27323 FILLER_78_1320
*27324 FILLER_78_1323
*27325 FILLER_78_1326
*27326 FILLER_78_1329
*27327 FILLER_78_1332
*27328 FILLER_78_1335
*27329 FILLER_78_1338
*27330 FILLER_78_1341
*27331 FILLER_78_1344
*27332 FILLER_78_1346
*27333 FILLER_78_1349
*27334 FILLER_78_1352
*27335 FILLER_78_1355
*27336 FILLER_78_1358
*27337 FILLER_78_1361
*27338 FILLER_78_15
*27339 FILLER_78_18
*27340 FILLER_78_21
*27341 FILLER_78_24
*27342 FILLER_78_27
*27343 FILLER_78_29
*27344 FILLER_78_3
*27345 FILLER_78_32
*27346 FILLER_78_35
*27347 FILLER_78_45
*27348 FILLER_78_48
*27349 FILLER_78_51
*27350 FILLER_78_6
*27351 FILLER_78_74
*27352 FILLER_78_77
*27353 FILLER_78_80
*27354 FILLER_78_83
*27355 FILLER_78_85
*27356 FILLER_78_88
*27357 FILLER_78_9
*27358 FILLER_78_91
*27359 FILLER_78_94
*27360 FILLER_78_97
*27361 FILLER_79_101
*27362 FILLER_79_104
*27363 FILLER_79_107
*27364 FILLER_79_110
*27365 FILLER_79_113
*27366 FILLER_79_12
*27367 FILLER_79_1208
*27368 FILLER_79_1211
*27369 FILLER_79_1214
*27370 FILLER_79_1217
*27371 FILLER_79_1220
*27372 FILLER_79_1223
*27373 FILLER_79_1226
*27374 FILLER_79_1229
*27375 FILLER_79_1232
*27376 FILLER_79_1235
*27377 FILLER_79_1238
*27378 FILLER_79_1241
*27379 FILLER_79_1244
*27380 FILLER_79_1247
*27381 FILLER_79_1250
*27382 FILLER_79_1253
*27383 FILLER_79_1256
*27384 FILLER_79_1259
*27385 FILLER_79_1262
*27386 FILLER_79_1265
*27387 FILLER_79_1268
*27388 FILLER_79_1271
*27389 FILLER_79_1274
*27390 FILLER_79_1277
*27391 FILLER_79_1280
*27392 FILLER_79_1283
*27393 FILLER_79_1286
*27394 FILLER_79_1289
*27395 FILLER_79_1292
*27396 FILLER_79_1295
*27397 FILLER_79_1298
*27398 FILLER_79_1301
*27399 FILLER_79_1304
*27400 FILLER_79_1307
*27401 FILLER_79_1310
*27402 FILLER_79_1313
*27403 FILLER_79_1316
*27404 FILLER_79_1318
*27405 FILLER_79_1321
*27406 FILLER_79_1324
*27407 FILLER_79_1327
*27408 FILLER_79_1330
*27409 FILLER_79_1333
*27410 FILLER_79_1336
*27411 FILLER_79_1339
*27412 FILLER_79_1342
*27413 FILLER_79_1345
*27414 FILLER_79_1348
*27415 FILLER_79_1351
*27416 FILLER_79_1354
*27417 FILLER_79_1357
*27418 FILLER_79_1360
*27419 FILLER_79_1363
*27420 FILLER_79_15
*27421 FILLER_79_18
*27422 FILLER_79_21
*27423 FILLER_79_24
*27424 FILLER_79_27
*27425 FILLER_79_3
*27426 FILLER_79_30
*27427 FILLER_79_33
*27428 FILLER_79_36
*27429 FILLER_79_55
*27430 FILLER_79_6
*27431 FILLER_79_9
*27432 FILLER_79_98
*27433 FILLER_7_1001
*27434 FILLER_7_1004
*27435 FILLER_7_1007
*27436 FILLER_7_1009
*27437 FILLER_7_1012
*27438 FILLER_7_1015
*27439 FILLER_7_1018
*27440 FILLER_7_102
*27441 FILLER_7_1021
*27442 FILLER_7_1024
*27443 FILLER_7_1027
*27444 FILLER_7_1030
*27445 FILLER_7_1033
*27446 FILLER_7_1036
*27447 FILLER_7_1039
*27448 FILLER_7_1042
*27449 FILLER_7_1045
*27450 FILLER_7_1048
*27451 FILLER_7_105
*27452 FILLER_7_1051
*27453 FILLER_7_1054
*27454 FILLER_7_1057
*27455 FILLER_7_1060
*27456 FILLER_7_1063
*27457 FILLER_7_1065
*27458 FILLER_7_1068
*27459 FILLER_7_1071
*27460 FILLER_7_1074
*27461 FILLER_7_1077
*27462 FILLER_7_108
*27463 FILLER_7_1080
*27464 FILLER_7_1083
*27465 FILLER_7_1086
*27466 FILLER_7_1089
*27467 FILLER_7_1092
*27468 FILLER_7_1095
*27469 FILLER_7_1098
*27470 FILLER_7_1101
*27471 FILLER_7_1104
*27472 FILLER_7_1107
*27473 FILLER_7_111
*27474 FILLER_7_1110
*27475 FILLER_7_1113
*27476 FILLER_7_1116
*27477 FILLER_7_1119
*27478 FILLER_7_1121
*27479 FILLER_7_1124
*27480 FILLER_7_1127
*27481 FILLER_7_113
*27482 FILLER_7_1130
*27483 FILLER_7_1133
*27484 FILLER_7_1136
*27485 FILLER_7_1139
*27486 FILLER_7_1142
*27487 FILLER_7_1145
*27488 FILLER_7_1148
*27489 FILLER_7_1151
*27490 FILLER_7_1154
*27491 FILLER_7_1157
*27492 FILLER_7_116
*27493 FILLER_7_1160
*27494 FILLER_7_1163
*27495 FILLER_7_1166
*27496 FILLER_7_1169
*27497 FILLER_7_1172
*27498 FILLER_7_1175
*27499 FILLER_7_1177
*27500 FILLER_7_1180
*27501 FILLER_7_1183
*27502 FILLER_7_1186
*27503 FILLER_7_1189
*27504 FILLER_7_119
*27505 FILLER_7_1192
*27506 FILLER_7_1195
*27507 FILLER_7_1198
*27508 FILLER_7_12
*27509 FILLER_7_1201
*27510 FILLER_7_1204
*27511 FILLER_7_1207
*27512 FILLER_7_1210
*27513 FILLER_7_1213
*27514 FILLER_7_1216
*27515 FILLER_7_1219
*27516 FILLER_7_122
*27517 FILLER_7_1222
*27518 FILLER_7_1225
*27519 FILLER_7_1228
*27520 FILLER_7_1231
*27521 FILLER_7_1233
*27522 FILLER_7_1236
*27523 FILLER_7_1239
*27524 FILLER_7_1242
*27525 FILLER_7_1245
*27526 FILLER_7_1248
*27527 FILLER_7_125
*27528 FILLER_7_1251
*27529 FILLER_7_1254
*27530 FILLER_7_1257
*27531 FILLER_7_1260
*27532 FILLER_7_1263
*27533 FILLER_7_1266
*27534 FILLER_7_1269
*27535 FILLER_7_1272
*27536 FILLER_7_1275
*27537 FILLER_7_1278
*27538 FILLER_7_128
*27539 FILLER_7_1281
*27540 FILLER_7_1284
*27541 FILLER_7_1287
*27542 FILLER_7_1289
*27543 FILLER_7_1292
*27544 FILLER_7_1295
*27545 FILLER_7_1298
*27546 FILLER_7_1301
*27547 FILLER_7_1304
*27548 FILLER_7_1307
*27549 FILLER_7_131
*27550 FILLER_7_1310
*27551 FILLER_7_1313
*27552 FILLER_7_1316
*27553 FILLER_7_1319
*27554 FILLER_7_1322
*27555 FILLER_7_1325
*27556 FILLER_7_1328
*27557 FILLER_7_1331
*27558 FILLER_7_1334
*27559 FILLER_7_1337
*27560 FILLER_7_134
*27561 FILLER_7_1340
*27562 FILLER_7_1343
*27563 FILLER_7_1345
*27564 FILLER_7_1348
*27565 FILLER_7_1351
*27566 FILLER_7_1354
*27567 FILLER_7_1357
*27568 FILLER_7_1360
*27569 FILLER_7_1363
*27570 FILLER_7_137
*27571 FILLER_7_140
*27572 FILLER_7_143
*27573 FILLER_7_146
*27574 FILLER_7_149
*27575 FILLER_7_15
*27576 FILLER_7_152
*27577 FILLER_7_155
*27578 FILLER_7_158
*27579 FILLER_7_161
*27580 FILLER_7_164
*27581 FILLER_7_167
*27582 FILLER_7_169
*27583 FILLER_7_172
*27584 FILLER_7_175
*27585 FILLER_7_178
*27586 FILLER_7_18
*27587 FILLER_7_181
*27588 FILLER_7_184
*27589 FILLER_7_187
*27590 FILLER_7_190
*27591 FILLER_7_193
*27592 FILLER_7_196
*27593 FILLER_7_199
*27594 FILLER_7_202
*27595 FILLER_7_205
*27596 FILLER_7_208
*27597 FILLER_7_21
*27598 FILLER_7_211
*27599 FILLER_7_214
*27600 FILLER_7_217
*27601 FILLER_7_220
*27602 FILLER_7_223
*27603 FILLER_7_225
*27604 FILLER_7_228
*27605 FILLER_7_231
*27606 FILLER_7_234
*27607 FILLER_7_237
*27608 FILLER_7_24
*27609 FILLER_7_240
*27610 FILLER_7_243
*27611 FILLER_7_246
*27612 FILLER_7_249
*27613 FILLER_7_252
*27614 FILLER_7_255
*27615 FILLER_7_258
*27616 FILLER_7_261
*27617 FILLER_7_264
*27618 FILLER_7_267
*27619 FILLER_7_27
*27620 FILLER_7_270
*27621 FILLER_7_273
*27622 FILLER_7_276
*27623 FILLER_7_279
*27624 FILLER_7_281
*27625 FILLER_7_284
*27626 FILLER_7_287
*27627 FILLER_7_290
*27628 FILLER_7_293
*27629 FILLER_7_296
*27630 FILLER_7_299
*27631 FILLER_7_3
*27632 FILLER_7_30
*27633 FILLER_7_302
*27634 FILLER_7_305
*27635 FILLER_7_308
*27636 FILLER_7_311
*27637 FILLER_7_314
*27638 FILLER_7_317
*27639 FILLER_7_320
*27640 FILLER_7_323
*27641 FILLER_7_326
*27642 FILLER_7_329
*27643 FILLER_7_33
*27644 FILLER_7_332
*27645 FILLER_7_335
*27646 FILLER_7_337
*27647 FILLER_7_340
*27648 FILLER_7_343
*27649 FILLER_7_346
*27650 FILLER_7_349
*27651 FILLER_7_352
*27652 FILLER_7_355
*27653 FILLER_7_358
*27654 FILLER_7_36
*27655 FILLER_7_361
*27656 FILLER_7_364
*27657 FILLER_7_367
*27658 FILLER_7_370
*27659 FILLER_7_373
*27660 FILLER_7_376
*27661 FILLER_7_379
*27662 FILLER_7_382
*27663 FILLER_7_385
*27664 FILLER_7_388
*27665 FILLER_7_39
*27666 FILLER_7_391
*27667 FILLER_7_393
*27668 FILLER_7_396
*27669 FILLER_7_399
*27670 FILLER_7_402
*27671 FILLER_7_405
*27672 FILLER_7_408
*27673 FILLER_7_411
*27674 FILLER_7_414
*27675 FILLER_7_417
*27676 FILLER_7_42
*27677 FILLER_7_420
*27678 FILLER_7_423
*27679 FILLER_7_426
*27680 FILLER_7_429
*27681 FILLER_7_432
*27682 FILLER_7_435
*27683 FILLER_7_438
*27684 FILLER_7_441
*27685 FILLER_7_444
*27686 FILLER_7_447
*27687 FILLER_7_449
*27688 FILLER_7_45
*27689 FILLER_7_452
*27690 FILLER_7_455
*27691 FILLER_7_458
*27692 FILLER_7_461
*27693 FILLER_7_464
*27694 FILLER_7_467
*27695 FILLER_7_470
*27696 FILLER_7_473
*27697 FILLER_7_476
*27698 FILLER_7_479
*27699 FILLER_7_48
*27700 FILLER_7_482
*27701 FILLER_7_485
*27702 FILLER_7_488
*27703 FILLER_7_491
*27704 FILLER_7_494
*27705 FILLER_7_497
*27706 FILLER_7_500
*27707 FILLER_7_503
*27708 FILLER_7_505
*27709 FILLER_7_508
*27710 FILLER_7_51
*27711 FILLER_7_511
*27712 FILLER_7_514
*27713 FILLER_7_517
*27714 FILLER_7_520
*27715 FILLER_7_523
*27716 FILLER_7_526
*27717 FILLER_7_529
*27718 FILLER_7_532
*27719 FILLER_7_535
*27720 FILLER_7_538
*27721 FILLER_7_54
*27722 FILLER_7_541
*27723 FILLER_7_544
*27724 FILLER_7_547
*27725 FILLER_7_550
*27726 FILLER_7_553
*27727 FILLER_7_556
*27728 FILLER_7_559
*27729 FILLER_7_561
*27730 FILLER_7_564
*27731 FILLER_7_567
*27732 FILLER_7_57
*27733 FILLER_7_570
*27734 FILLER_7_573
*27735 FILLER_7_576
*27736 FILLER_7_579
*27737 FILLER_7_582
*27738 FILLER_7_585
*27739 FILLER_7_588
*27740 FILLER_7_591
*27741 FILLER_7_594
*27742 FILLER_7_597
*27743 FILLER_7_6
*27744 FILLER_7_60
*27745 FILLER_7_600
*27746 FILLER_7_603
*27747 FILLER_7_606
*27748 FILLER_7_609
*27749 FILLER_7_612
*27750 FILLER_7_615
*27751 FILLER_7_617
*27752 FILLER_7_620
*27753 FILLER_7_623
*27754 FILLER_7_626
*27755 FILLER_7_629
*27756 FILLER_7_63
*27757 FILLER_7_632
*27758 FILLER_7_635
*27759 FILLER_7_638
*27760 FILLER_7_641
*27761 FILLER_7_644
*27762 FILLER_7_647
*27763 FILLER_7_650
*27764 FILLER_7_653
*27765 FILLER_7_656
*27766 FILLER_7_659
*27767 FILLER_7_66
*27768 FILLER_7_662
*27769 FILLER_7_665
*27770 FILLER_7_668
*27771 FILLER_7_671
*27772 FILLER_7_673
*27773 FILLER_7_676
*27774 FILLER_7_679
*27775 FILLER_7_682
*27776 FILLER_7_685
*27777 FILLER_7_688
*27778 FILLER_7_69
*27779 FILLER_7_691
*27780 FILLER_7_694
*27781 FILLER_7_697
*27782 FILLER_7_700
*27783 FILLER_7_703
*27784 FILLER_7_706
*27785 FILLER_7_709
*27786 FILLER_7_712
*27787 FILLER_7_715
*27788 FILLER_7_718
*27789 FILLER_7_72
*27790 FILLER_7_721
*27791 FILLER_7_724
*27792 FILLER_7_727
*27793 FILLER_7_729
*27794 FILLER_7_732
*27795 FILLER_7_735
*27796 FILLER_7_738
*27797 FILLER_7_741
*27798 FILLER_7_744
*27799 FILLER_7_747
*27800 FILLER_7_75
*27801 FILLER_7_750
*27802 FILLER_7_753
*27803 FILLER_7_756
*27804 FILLER_7_759
*27805 FILLER_7_762
*27806 FILLER_7_765
*27807 FILLER_7_768
*27808 FILLER_7_771
*27809 FILLER_7_774
*27810 FILLER_7_777
*27811 FILLER_7_78
*27812 FILLER_7_780
*27813 FILLER_7_783
*27814 FILLER_7_785
*27815 FILLER_7_788
*27816 FILLER_7_791
*27817 FILLER_7_794
*27818 FILLER_7_797
*27819 FILLER_7_800
*27820 FILLER_7_803
*27821 FILLER_7_806
*27822 FILLER_7_809
*27823 FILLER_7_81
*27824 FILLER_7_812
*27825 FILLER_7_815
*27826 FILLER_7_818
*27827 FILLER_7_821
*27828 FILLER_7_824
*27829 FILLER_7_827
*27830 FILLER_7_830
*27831 FILLER_7_833
*27832 FILLER_7_836
*27833 FILLER_7_839
*27834 FILLER_7_84
*27835 FILLER_7_841
*27836 FILLER_7_844
*27837 FILLER_7_847
*27838 FILLER_7_850
*27839 FILLER_7_853
*27840 FILLER_7_856
*27841 FILLER_7_859
*27842 FILLER_7_862
*27843 FILLER_7_865
*27844 FILLER_7_868
*27845 FILLER_7_87
*27846 FILLER_7_871
*27847 FILLER_7_874
*27848 FILLER_7_877
*27849 FILLER_7_880
*27850 FILLER_7_883
*27851 FILLER_7_886
*27852 FILLER_7_889
*27853 FILLER_7_892
*27854 FILLER_7_895
*27855 FILLER_7_897
*27856 FILLER_7_9
*27857 FILLER_7_90
*27858 FILLER_7_900
*27859 FILLER_7_903
*27860 FILLER_7_906
*27861 FILLER_7_909
*27862 FILLER_7_912
*27863 FILLER_7_915
*27864 FILLER_7_918
*27865 FILLER_7_921
*27866 FILLER_7_924
*27867 FILLER_7_927
*27868 FILLER_7_93
*27869 FILLER_7_930
*27870 FILLER_7_933
*27871 FILLER_7_936
*27872 FILLER_7_939
*27873 FILLER_7_942
*27874 FILLER_7_945
*27875 FILLER_7_948
*27876 FILLER_7_951
*27877 FILLER_7_953
*27878 FILLER_7_956
*27879 FILLER_7_959
*27880 FILLER_7_96
*27881 FILLER_7_962
*27882 FILLER_7_965
*27883 FILLER_7_968
*27884 FILLER_7_971
*27885 FILLER_7_974
*27886 FILLER_7_977
*27887 FILLER_7_980
*27888 FILLER_7_983
*27889 FILLER_7_986
*27890 FILLER_7_989
*27891 FILLER_7_99
*27892 FILLER_7_992
*27893 FILLER_7_995
*27894 FILLER_7_998
*27895 FILLER_80_100
*27896 FILLER_80_103
*27897 FILLER_80_106
*27898 FILLER_80_109
*27899 FILLER_80_112
*27900 FILLER_80_12
*27901 FILLER_80_1208
*27902 FILLER_80_1211
*27903 FILLER_80_1214
*27904 FILLER_80_1217
*27905 FILLER_80_1220
*27906 FILLER_80_1223
*27907 FILLER_80_1226
*27908 FILLER_80_1229
*27909 FILLER_80_1232
*27910 FILLER_80_1234
*27911 FILLER_80_1237
*27912 FILLER_80_1240
*27913 FILLER_80_1243
*27914 FILLER_80_1246
*27915 FILLER_80_1249
*27916 FILLER_80_1252
*27917 FILLER_80_1255
*27918 FILLER_80_1258
*27919 FILLER_80_1261
*27920 FILLER_80_1264
*27921 FILLER_80_1267
*27922 FILLER_80_1270
*27923 FILLER_80_1273
*27924 FILLER_80_1276
*27925 FILLER_80_1279
*27926 FILLER_80_1282
*27927 FILLER_80_1285
*27928 FILLER_80_1288
*27929 FILLER_80_1290
*27930 FILLER_80_1293
*27931 FILLER_80_1296
*27932 FILLER_80_1299
*27933 FILLER_80_1302
*27934 FILLER_80_1305
*27935 FILLER_80_1308
*27936 FILLER_80_1311
*27937 FILLER_80_1314
*27938 FILLER_80_1317
*27939 FILLER_80_1320
*27940 FILLER_80_1323
*27941 FILLER_80_1326
*27942 FILLER_80_1329
*27943 FILLER_80_1332
*27944 FILLER_80_1335
*27945 FILLER_80_1338
*27946 FILLER_80_1341
*27947 FILLER_80_1344
*27948 FILLER_80_1346
*27949 FILLER_80_1349
*27950 FILLER_80_1352
*27951 FILLER_80_1355
*27952 FILLER_80_1358
*27953 FILLER_80_1361
*27954 FILLER_80_15
*27955 FILLER_80_18
*27956 FILLER_80_21
*27957 FILLER_80_24
*27958 FILLER_80_27
*27959 FILLER_80_29
*27960 FILLER_80_3
*27961 FILLER_80_32
*27962 FILLER_80_35
*27963 FILLER_80_38
*27964 FILLER_80_41
*27965 FILLER_80_44
*27966 FILLER_80_47
*27967 FILLER_80_50
*27968 FILLER_80_6
*27969 FILLER_80_72
*27970 FILLER_80_75
*27971 FILLER_80_78
*27972 FILLER_80_81
*27973 FILLER_80_85
*27974 FILLER_80_88
*27975 FILLER_80_9
*27976 FILLER_80_91
*27977 FILLER_80_94
*27978 FILLER_80_97
*27979 FILLER_81_100
*27980 FILLER_81_103
*27981 FILLER_81_106
*27982 FILLER_81_109
*27983 FILLER_81_113
*27984 FILLER_81_12
*27985 FILLER_81_1208
*27986 FILLER_81_1211
*27987 FILLER_81_1214
*27988 FILLER_81_1217
*27989 FILLER_81_1220
*27990 FILLER_81_1223
*27991 FILLER_81_1226
*27992 FILLER_81_1229
*27993 FILLER_81_1232
*27994 FILLER_81_1235
*27995 FILLER_81_1238
*27996 FILLER_81_1241
*27997 FILLER_81_1244
*27998 FILLER_81_1247
*27999 FILLER_81_1250
*28000 FILLER_81_1253
*28001 FILLER_81_1256
*28002 FILLER_81_1259
*28003 FILLER_81_1262
*28004 FILLER_81_1265
*28005 FILLER_81_1268
*28006 FILLER_81_1271
*28007 FILLER_81_1274
*28008 FILLER_81_1277
*28009 FILLER_81_1280
*28010 FILLER_81_1283
*28011 FILLER_81_1286
*28012 FILLER_81_1289
*28013 FILLER_81_1292
*28014 FILLER_81_1295
*28015 FILLER_81_1298
*28016 FILLER_81_1301
*28017 FILLER_81_1304
*28018 FILLER_81_1307
*28019 FILLER_81_1310
*28020 FILLER_81_1313
*28021 FILLER_81_1316
*28022 FILLER_81_1318
*28023 FILLER_81_1321
*28024 FILLER_81_1324
*28025 FILLER_81_1327
*28026 FILLER_81_1330
*28027 FILLER_81_1333
*28028 FILLER_81_1336
*28029 FILLER_81_1339
*28030 FILLER_81_1342
*28031 FILLER_81_1345
*28032 FILLER_81_1348
*28033 FILLER_81_1351
*28034 FILLER_81_1354
*28035 FILLER_81_1357
*28036 FILLER_81_1360
*28037 FILLER_81_1363
*28038 FILLER_81_15
*28039 FILLER_81_18
*28040 FILLER_81_21
*28041 FILLER_81_24
*28042 FILLER_81_27
*28043 FILLER_81_3
*28044 FILLER_81_30
*28045 FILLER_81_33
*28046 FILLER_81_36
*28047 FILLER_81_39
*28048 FILLER_81_42
*28049 FILLER_81_45
*28050 FILLER_81_48
*28051 FILLER_81_51
*28052 FILLER_81_54
*28053 FILLER_81_57
*28054 FILLER_81_6
*28055 FILLER_81_60
*28056 FILLER_81_63
*28057 FILLER_81_66
*28058 FILLER_81_69
*28059 FILLER_81_72
*28060 FILLER_81_9
*28061 FILLER_81_94
*28062 FILLER_81_97
*28063 FILLER_82_100
*28064 FILLER_82_103
*28065 FILLER_82_106
*28066 FILLER_82_109
*28067 FILLER_82_112
*28068 FILLER_82_12
*28069 FILLER_82_1208
*28070 FILLER_82_1211
*28071 FILLER_82_1214
*28072 FILLER_82_1217
*28073 FILLER_82_1220
*28074 FILLER_82_1223
*28075 FILLER_82_1226
*28076 FILLER_82_1229
*28077 FILLER_82_1232
*28078 FILLER_82_1234
*28079 FILLER_82_1237
*28080 FILLER_82_1240
*28081 FILLER_82_1243
*28082 FILLER_82_1246
*28083 FILLER_82_1249
*28084 FILLER_82_1252
*28085 FILLER_82_1255
*28086 FILLER_82_1258
*28087 FILLER_82_1261
*28088 FILLER_82_1264
*28089 FILLER_82_1267
*28090 FILLER_82_1270
*28091 FILLER_82_1273
*28092 FILLER_82_1276
*28093 FILLER_82_1279
*28094 FILLER_82_1282
*28095 FILLER_82_1285
*28096 FILLER_82_1288
*28097 FILLER_82_1290
*28098 FILLER_82_1293
*28099 FILLER_82_1296
*28100 FILLER_82_1299
*28101 FILLER_82_1302
*28102 FILLER_82_1305
*28103 FILLER_82_1308
*28104 FILLER_82_1311
*28105 FILLER_82_1314
*28106 FILLER_82_1317
*28107 FILLER_82_1320
*28108 FILLER_82_1323
*28109 FILLER_82_1326
*28110 FILLER_82_1329
*28111 FILLER_82_1332
*28112 FILLER_82_1335
*28113 FILLER_82_1338
*28114 FILLER_82_1341
*28115 FILLER_82_1344
*28116 FILLER_82_1346
*28117 FILLER_82_1349
*28118 FILLER_82_1352
*28119 FILLER_82_1355
*28120 FILLER_82_1358
*28121 FILLER_82_1361
*28122 FILLER_82_15
*28123 FILLER_82_18
*28124 FILLER_82_21
*28125 FILLER_82_24
*28126 FILLER_82_27
*28127 FILLER_82_29
*28128 FILLER_82_3
*28129 FILLER_82_32
*28130 FILLER_82_35
*28131 FILLER_82_38
*28132 FILLER_82_41
*28133 FILLER_82_44
*28134 FILLER_82_47
*28135 FILLER_82_50
*28136 FILLER_82_6
*28137 FILLER_82_72
*28138 FILLER_82_75
*28139 FILLER_82_78
*28140 FILLER_82_81
*28141 FILLER_82_85
*28142 FILLER_82_88
*28143 FILLER_82_9
*28144 FILLER_82_91
*28145 FILLER_82_94
*28146 FILLER_82_97
*28147 FILLER_83_100
*28148 FILLER_83_103
*28149 FILLER_83_106
*28150 FILLER_83_109
*28151 FILLER_83_113
*28152 FILLER_83_12
*28153 FILLER_83_1208
*28154 FILLER_83_1211
*28155 FILLER_83_1214
*28156 FILLER_83_1217
*28157 FILLER_83_1220
*28158 FILLER_83_1223
*28159 FILLER_83_1226
*28160 FILLER_83_1229
*28161 FILLER_83_1232
*28162 FILLER_83_1235
*28163 FILLER_83_1238
*28164 FILLER_83_1241
*28165 FILLER_83_1244
*28166 FILLER_83_1247
*28167 FILLER_83_1250
*28168 FILLER_83_1253
*28169 FILLER_83_1256
*28170 FILLER_83_1259
*28171 FILLER_83_1262
*28172 FILLER_83_1265
*28173 FILLER_83_1268
*28174 FILLER_83_1271
*28175 FILLER_83_1274
*28176 FILLER_83_1277
*28177 FILLER_83_1280
*28178 FILLER_83_1283
*28179 FILLER_83_1286
*28180 FILLER_83_1289
*28181 FILLER_83_1292
*28182 FILLER_83_1295
*28183 FILLER_83_1298
*28184 FILLER_83_1301
*28185 FILLER_83_1304
*28186 FILLER_83_1307
*28187 FILLER_83_1310
*28188 FILLER_83_1313
*28189 FILLER_83_1316
*28190 FILLER_83_1318
*28191 FILLER_83_1321
*28192 FILLER_83_1324
*28193 FILLER_83_1327
*28194 FILLER_83_1330
*28195 FILLER_83_1333
*28196 FILLER_83_1336
*28197 FILLER_83_1339
*28198 FILLER_83_1342
*28199 FILLER_83_1345
*28200 FILLER_83_1348
*28201 FILLER_83_1351
*28202 FILLER_83_1354
*28203 FILLER_83_1357
*28204 FILLER_83_1360
*28205 FILLER_83_1363
*28206 FILLER_83_15
*28207 FILLER_83_18
*28208 FILLER_83_21
*28209 FILLER_83_24
*28210 FILLER_83_27
*28211 FILLER_83_3
*28212 FILLER_83_30
*28213 FILLER_83_33
*28214 FILLER_83_36
*28215 FILLER_83_39
*28216 FILLER_83_42
*28217 FILLER_83_45
*28218 FILLER_83_48
*28219 FILLER_83_51
*28220 FILLER_83_54
*28221 FILLER_83_57
*28222 FILLER_83_6
*28223 FILLER_83_60
*28224 FILLER_83_63
*28225 FILLER_83_70
*28226 FILLER_83_73
*28227 FILLER_83_76
*28228 FILLER_83_79
*28229 FILLER_83_82
*28230 FILLER_83_85
*28231 FILLER_83_88
*28232 FILLER_83_9
*28233 FILLER_83_91
*28234 FILLER_83_94
*28235 FILLER_83_97
*28236 FILLER_84_100
*28237 FILLER_84_103
*28238 FILLER_84_106
*28239 FILLER_84_109
*28240 FILLER_84_112
*28241 FILLER_84_12
*28242 FILLER_84_1208
*28243 FILLER_84_1211
*28244 FILLER_84_1214
*28245 FILLER_84_1217
*28246 FILLER_84_1220
*28247 FILLER_84_1223
*28248 FILLER_84_1226
*28249 FILLER_84_1229
*28250 FILLER_84_1232
*28251 FILLER_84_1234
*28252 FILLER_84_1237
*28253 FILLER_84_1240
*28254 FILLER_84_1243
*28255 FILLER_84_1246
*28256 FILLER_84_1249
*28257 FILLER_84_1252
*28258 FILLER_84_1255
*28259 FILLER_84_1258
*28260 FILLER_84_1261
*28261 FILLER_84_1264
*28262 FILLER_84_1267
*28263 FILLER_84_1270
*28264 FILLER_84_1273
*28265 FILLER_84_1276
*28266 FILLER_84_1279
*28267 FILLER_84_1282
*28268 FILLER_84_1285
*28269 FILLER_84_1288
*28270 FILLER_84_1290
*28271 FILLER_84_1293
*28272 FILLER_84_1296
*28273 FILLER_84_1299
*28274 FILLER_84_1302
*28275 FILLER_84_1305
*28276 FILLER_84_1308
*28277 FILLER_84_1311
*28278 FILLER_84_1314
*28279 FILLER_84_1317
*28280 FILLER_84_1320
*28281 FILLER_84_1323
*28282 FILLER_84_1326
*28283 FILLER_84_1329
*28284 FILLER_84_1332
*28285 FILLER_84_1335
*28286 FILLER_84_1338
*28287 FILLER_84_1341
*28288 FILLER_84_1344
*28289 FILLER_84_1346
*28290 FILLER_84_1349
*28291 FILLER_84_1352
*28292 FILLER_84_1355
*28293 FILLER_84_1358
*28294 FILLER_84_1361
*28295 FILLER_84_15
*28296 FILLER_84_18
*28297 FILLER_84_21
*28298 FILLER_84_24
*28299 FILLER_84_27
*28300 FILLER_84_29
*28301 FILLER_84_3
*28302 FILLER_84_32
*28303 FILLER_84_35
*28304 FILLER_84_38
*28305 FILLER_84_41
*28306 FILLER_84_44
*28307 FILLER_84_47
*28308 FILLER_84_50
*28309 FILLER_84_53
*28310 FILLER_84_56
*28311 FILLER_84_59
*28312 FILLER_84_6
*28313 FILLER_84_62
*28314 FILLER_84_85
*28315 FILLER_84_88
*28316 FILLER_84_9
*28317 FILLER_84_91
*28318 FILLER_84_94
*28319 FILLER_84_97
*28320 FILLER_85_102
*28321 FILLER_85_105
*28322 FILLER_85_108
*28323 FILLER_85_111
*28324 FILLER_85_113
*28325 FILLER_85_12
*28326 FILLER_85_1208
*28327 FILLER_85_1211
*28328 FILLER_85_1214
*28329 FILLER_85_1217
*28330 FILLER_85_1220
*28331 FILLER_85_1223
*28332 FILLER_85_1226
*28333 FILLER_85_1229
*28334 FILLER_85_1232
*28335 FILLER_85_1235
*28336 FILLER_85_1238
*28337 FILLER_85_1241
*28338 FILLER_85_1244
*28339 FILLER_85_1247
*28340 FILLER_85_1250
*28341 FILLER_85_1253
*28342 FILLER_85_1256
*28343 FILLER_85_1259
*28344 FILLER_85_1262
*28345 FILLER_85_1265
*28346 FILLER_85_1268
*28347 FILLER_85_1271
*28348 FILLER_85_1274
*28349 FILLER_85_1277
*28350 FILLER_85_1280
*28351 FILLER_85_1283
*28352 FILLER_85_1286
*28353 FILLER_85_1289
*28354 FILLER_85_1292
*28355 FILLER_85_1295
*28356 FILLER_85_1298
*28357 FILLER_85_1301
*28358 FILLER_85_1304
*28359 FILLER_85_1307
*28360 FILLER_85_1310
*28361 FILLER_85_1313
*28362 FILLER_85_1316
*28363 FILLER_85_1318
*28364 FILLER_85_1321
*28365 FILLER_85_1324
*28366 FILLER_85_1327
*28367 FILLER_85_1330
*28368 FILLER_85_1333
*28369 FILLER_85_1336
*28370 FILLER_85_1339
*28371 FILLER_85_1342
*28372 FILLER_85_1345
*28373 FILLER_85_1348
*28374 FILLER_85_1351
*28375 FILLER_85_1354
*28376 FILLER_85_1357
*28377 FILLER_85_1360
*28378 FILLER_85_1363
*28379 FILLER_85_15
*28380 FILLER_85_18
*28381 FILLER_85_21
*28382 FILLER_85_24
*28383 FILLER_85_27
*28384 FILLER_85_3
*28385 FILLER_85_30
*28386 FILLER_85_33
*28387 FILLER_85_36
*28388 FILLER_85_39
*28389 FILLER_85_42
*28390 FILLER_85_45
*28391 FILLER_85_48
*28392 FILLER_85_51
*28393 FILLER_85_54
*28394 FILLER_85_57
*28395 FILLER_85_6
*28396 FILLER_85_60
*28397 FILLER_85_63
*28398 FILLER_85_66
*28399 FILLER_85_69
*28400 FILLER_85_72
*28401 FILLER_85_75
*28402 FILLER_85_78
*28403 FILLER_85_81
*28404 FILLER_85_84
*28405 FILLER_85_87
*28406 FILLER_85_9
*28407 FILLER_85_90
*28408 FILLER_85_93
*28409 FILLER_85_96
*28410 FILLER_85_99
*28411 FILLER_86_100
*28412 FILLER_86_103
*28413 FILLER_86_106
*28414 FILLER_86_109
*28415 FILLER_86_112
*28416 FILLER_86_12
*28417 FILLER_86_1208
*28418 FILLER_86_1211
*28419 FILLER_86_1214
*28420 FILLER_86_1217
*28421 FILLER_86_1220
*28422 FILLER_86_1223
*28423 FILLER_86_1226
*28424 FILLER_86_1229
*28425 FILLER_86_1232
*28426 FILLER_86_1234
*28427 FILLER_86_1237
*28428 FILLER_86_1240
*28429 FILLER_86_1243
*28430 FILLER_86_1246
*28431 FILLER_86_1249
*28432 FILLER_86_1252
*28433 FILLER_86_1255
*28434 FILLER_86_1258
*28435 FILLER_86_1261
*28436 FILLER_86_1264
*28437 FILLER_86_1267
*28438 FILLER_86_1270
*28439 FILLER_86_1273
*28440 FILLER_86_1276
*28441 FILLER_86_1279
*28442 FILLER_86_1282
*28443 FILLER_86_1285
*28444 FILLER_86_1288
*28445 FILLER_86_1290
*28446 FILLER_86_1293
*28447 FILLER_86_1296
*28448 FILLER_86_1299
*28449 FILLER_86_1302
*28450 FILLER_86_1305
*28451 FILLER_86_1308
*28452 FILLER_86_1311
*28453 FILLER_86_1314
*28454 FILLER_86_1317
*28455 FILLER_86_1320
*28456 FILLER_86_1323
*28457 FILLER_86_1326
*28458 FILLER_86_1329
*28459 FILLER_86_1332
*28460 FILLER_86_1335
*28461 FILLER_86_1338
*28462 FILLER_86_1341
*28463 FILLER_86_1344
*28464 FILLER_86_1346
*28465 FILLER_86_1349
*28466 FILLER_86_1352
*28467 FILLER_86_1355
*28468 FILLER_86_1358
*28469 FILLER_86_1361
*28470 FILLER_86_15
*28471 FILLER_86_18
*28472 FILLER_86_21
*28473 FILLER_86_24
*28474 FILLER_86_27
*28475 FILLER_86_29
*28476 FILLER_86_3
*28477 FILLER_86_32
*28478 FILLER_86_35
*28479 FILLER_86_38
*28480 FILLER_86_41
*28481 FILLER_86_44
*28482 FILLER_86_47
*28483 FILLER_86_50
*28484 FILLER_86_53
*28485 FILLER_86_56
*28486 FILLER_86_59
*28487 FILLER_86_6
*28488 FILLER_86_62
*28489 FILLER_86_65
*28490 FILLER_86_68
*28491 FILLER_86_71
*28492 FILLER_86_74
*28493 FILLER_86_77
*28494 FILLER_86_80
*28495 FILLER_86_83
*28496 FILLER_86_85
*28497 FILLER_86_88
*28498 FILLER_86_9
*28499 FILLER_86_91
*28500 FILLER_86_94
*28501 FILLER_86_97
*28502 FILLER_87_102
*28503 FILLER_87_105
*28504 FILLER_87_108
*28505 FILLER_87_111
*28506 FILLER_87_113
*28507 FILLER_87_12
*28508 FILLER_87_1208
*28509 FILLER_87_1211
*28510 FILLER_87_1214
*28511 FILLER_87_1217
*28512 FILLER_87_1220
*28513 FILLER_87_1223
*28514 FILLER_87_1226
*28515 FILLER_87_1229
*28516 FILLER_87_1232
*28517 FILLER_87_1235
*28518 FILLER_87_1238
*28519 FILLER_87_1241
*28520 FILLER_87_1244
*28521 FILLER_87_1247
*28522 FILLER_87_1250
*28523 FILLER_87_1253
*28524 FILLER_87_1256
*28525 FILLER_87_1259
*28526 FILLER_87_1262
*28527 FILLER_87_1265
*28528 FILLER_87_1268
*28529 FILLER_87_1271
*28530 FILLER_87_1274
*28531 FILLER_87_1277
*28532 FILLER_87_1280
*28533 FILLER_87_1283
*28534 FILLER_87_1286
*28535 FILLER_87_1289
*28536 FILLER_87_1292
*28537 FILLER_87_1295
*28538 FILLER_87_1298
*28539 FILLER_87_1301
*28540 FILLER_87_1304
*28541 FILLER_87_1307
*28542 FILLER_87_1310
*28543 FILLER_87_1313
*28544 FILLER_87_1316
*28545 FILLER_87_1318
*28546 FILLER_87_1321
*28547 FILLER_87_1324
*28548 FILLER_87_1327
*28549 FILLER_87_1330
*28550 FILLER_87_1333
*28551 FILLER_87_1336
*28552 FILLER_87_1339
*28553 FILLER_87_1342
*28554 FILLER_87_1345
*28555 FILLER_87_1348
*28556 FILLER_87_1351
*28557 FILLER_87_1354
*28558 FILLER_87_1357
*28559 FILLER_87_1360
*28560 FILLER_87_1363
*28561 FILLER_87_15
*28562 FILLER_87_18
*28563 FILLER_87_21
*28564 FILLER_87_24
*28565 FILLER_87_27
*28566 FILLER_87_3
*28567 FILLER_87_30
*28568 FILLER_87_33
*28569 FILLER_87_36
*28570 FILLER_87_39
*28571 FILLER_87_42
*28572 FILLER_87_45
*28573 FILLER_87_48
*28574 FILLER_87_51
*28575 FILLER_87_54
*28576 FILLER_87_57
*28577 FILLER_87_6
*28578 FILLER_87_60
*28579 FILLER_87_63
*28580 FILLER_87_66
*28581 FILLER_87_69
*28582 FILLER_87_72
*28583 FILLER_87_75
*28584 FILLER_87_78
*28585 FILLER_87_81
*28586 FILLER_87_84
*28587 FILLER_87_87
*28588 FILLER_87_9
*28589 FILLER_87_90
*28590 FILLER_87_93
*28591 FILLER_87_96
*28592 FILLER_87_99
*28593 FILLER_88_100
*28594 FILLER_88_103
*28595 FILLER_88_106
*28596 FILLER_88_109
*28597 FILLER_88_112
*28598 FILLER_88_12
*28599 FILLER_88_1208
*28600 FILLER_88_1211
*28601 FILLER_88_1214
*28602 FILLER_88_1217
*28603 FILLER_88_1220
*28604 FILLER_88_1223
*28605 FILLER_88_1226
*28606 FILLER_88_1229
*28607 FILLER_88_1232
*28608 FILLER_88_1234
*28609 FILLER_88_1237
*28610 FILLER_88_1240
*28611 FILLER_88_1243
*28612 FILLER_88_1246
*28613 FILLER_88_1249
*28614 FILLER_88_1252
*28615 FILLER_88_1255
*28616 FILLER_88_1258
*28617 FILLER_88_1261
*28618 FILLER_88_1264
*28619 FILLER_88_1267
*28620 FILLER_88_1270
*28621 FILLER_88_1273
*28622 FILLER_88_1276
*28623 FILLER_88_1279
*28624 FILLER_88_1282
*28625 FILLER_88_1285
*28626 FILLER_88_1288
*28627 FILLER_88_1290
*28628 FILLER_88_1293
*28629 FILLER_88_1296
*28630 FILLER_88_1299
*28631 FILLER_88_1302
*28632 FILLER_88_1305
*28633 FILLER_88_1308
*28634 FILLER_88_1311
*28635 FILLER_88_1314
*28636 FILLER_88_1317
*28637 FILLER_88_1320
*28638 FILLER_88_1323
*28639 FILLER_88_1326
*28640 FILLER_88_1329
*28641 FILLER_88_1332
*28642 FILLER_88_1335
*28643 FILLER_88_1338
*28644 FILLER_88_1341
*28645 FILLER_88_1344
*28646 FILLER_88_1346
*28647 FILLER_88_1349
*28648 FILLER_88_1352
*28649 FILLER_88_1355
*28650 FILLER_88_1358
*28651 FILLER_88_1361
*28652 FILLER_88_15
*28653 FILLER_88_18
*28654 FILLER_88_21
*28655 FILLER_88_24
*28656 FILLER_88_27
*28657 FILLER_88_29
*28658 FILLER_88_3
*28659 FILLER_88_32
*28660 FILLER_88_35
*28661 FILLER_88_38
*28662 FILLER_88_41
*28663 FILLER_88_44
*28664 FILLER_88_47
*28665 FILLER_88_50
*28666 FILLER_88_53
*28667 FILLER_88_56
*28668 FILLER_88_59
*28669 FILLER_88_6
*28670 FILLER_88_62
*28671 FILLER_88_65
*28672 FILLER_88_68
*28673 FILLER_88_71
*28674 FILLER_88_74
*28675 FILLER_88_77
*28676 FILLER_88_80
*28677 FILLER_88_83
*28678 FILLER_88_85
*28679 FILLER_88_88
*28680 FILLER_88_9
*28681 FILLER_88_91
*28682 FILLER_88_94
*28683 FILLER_88_97
*28684 FILLER_89_102
*28685 FILLER_89_105
*28686 FILLER_89_108
*28687 FILLER_89_111
*28688 FILLER_89_113
*28689 FILLER_89_12
*28690 FILLER_89_1208
*28691 FILLER_89_1211
*28692 FILLER_89_1214
*28693 FILLER_89_1217
*28694 FILLER_89_1220
*28695 FILLER_89_1223
*28696 FILLER_89_1226
*28697 FILLER_89_1229
*28698 FILLER_89_1232
*28699 FILLER_89_1235
*28700 FILLER_89_1238
*28701 FILLER_89_1241
*28702 FILLER_89_1244
*28703 FILLER_89_1247
*28704 FILLER_89_1250
*28705 FILLER_89_1253
*28706 FILLER_89_1256
*28707 FILLER_89_1259
*28708 FILLER_89_1262
*28709 FILLER_89_1265
*28710 FILLER_89_1268
*28711 FILLER_89_1271
*28712 FILLER_89_1274
*28713 FILLER_89_1277
*28714 FILLER_89_1280
*28715 FILLER_89_1283
*28716 FILLER_89_1286
*28717 FILLER_89_1289
*28718 FILLER_89_1292
*28719 FILLER_89_1295
*28720 FILLER_89_1298
*28721 FILLER_89_1301
*28722 FILLER_89_1304
*28723 FILLER_89_1307
*28724 FILLER_89_1310
*28725 FILLER_89_1313
*28726 FILLER_89_1316
*28727 FILLER_89_1318
*28728 FILLER_89_1321
*28729 FILLER_89_1324
*28730 FILLER_89_1327
*28731 FILLER_89_1330
*28732 FILLER_89_1333
*28733 FILLER_89_1336
*28734 FILLER_89_1339
*28735 FILLER_89_1342
*28736 FILLER_89_1345
*28737 FILLER_89_1348
*28738 FILLER_89_1351
*28739 FILLER_89_1354
*28740 FILLER_89_1357
*28741 FILLER_89_1360
*28742 FILLER_89_1363
*28743 FILLER_89_15
*28744 FILLER_89_18
*28745 FILLER_89_21
*28746 FILLER_89_24
*28747 FILLER_89_27
*28748 FILLER_89_3
*28749 FILLER_89_30
*28750 FILLER_89_33
*28751 FILLER_89_36
*28752 FILLER_89_39
*28753 FILLER_89_42
*28754 FILLER_89_45
*28755 FILLER_89_48
*28756 FILLER_89_51
*28757 FILLER_89_54
*28758 FILLER_89_57
*28759 FILLER_89_6
*28760 FILLER_89_60
*28761 FILLER_89_63
*28762 FILLER_89_66
*28763 FILLER_89_69
*28764 FILLER_89_72
*28765 FILLER_89_75
*28766 FILLER_89_78
*28767 FILLER_89_81
*28768 FILLER_89_84
*28769 FILLER_89_87
*28770 FILLER_89_9
*28771 FILLER_89_90
*28772 FILLER_89_93
*28773 FILLER_89_96
*28774 FILLER_89_99
*28775 FILLER_8_100
*28776 FILLER_8_1002
*28777 FILLER_8_1005
*28778 FILLER_8_1008
*28779 FILLER_8_1011
*28780 FILLER_8_1014
*28781 FILLER_8_1017
*28782 FILLER_8_1020
*28783 FILLER_8_1023
*28784 FILLER_8_1026
*28785 FILLER_8_1029
*28786 FILLER_8_103
*28787 FILLER_8_1032
*28788 FILLER_8_1035
*28789 FILLER_8_1037
*28790 FILLER_8_1040
*28791 FILLER_8_1043
*28792 FILLER_8_1046
*28793 FILLER_8_1049
*28794 FILLER_8_1052
*28795 FILLER_8_1055
*28796 FILLER_8_1058
*28797 FILLER_8_106
*28798 FILLER_8_1061
*28799 FILLER_8_1064
*28800 FILLER_8_1067
*28801 FILLER_8_1070
*28802 FILLER_8_1073
*28803 FILLER_8_1076
*28804 FILLER_8_1079
*28805 FILLER_8_1082
*28806 FILLER_8_1085
*28807 FILLER_8_1088
*28808 FILLER_8_109
*28809 FILLER_8_1091
*28810 FILLER_8_1093
*28811 FILLER_8_1096
*28812 FILLER_8_1099
*28813 FILLER_8_1102
*28814 FILLER_8_1105
*28815 FILLER_8_1108
*28816 FILLER_8_1111
*28817 FILLER_8_1114
*28818 FILLER_8_1117
*28819 FILLER_8_112
*28820 FILLER_8_1120
*28821 FILLER_8_1123
*28822 FILLER_8_1126
*28823 FILLER_8_1129
*28824 FILLER_8_1132
*28825 FILLER_8_1135
*28826 FILLER_8_1138
*28827 FILLER_8_1141
*28828 FILLER_8_1144
*28829 FILLER_8_1147
*28830 FILLER_8_1149
*28831 FILLER_8_115
*28832 FILLER_8_1152
*28833 FILLER_8_1155
*28834 FILLER_8_1158
*28835 FILLER_8_1161
*28836 FILLER_8_1164
*28837 FILLER_8_1167
*28838 FILLER_8_1170
*28839 FILLER_8_1173
*28840 FILLER_8_1176
*28841 FILLER_8_1179
*28842 FILLER_8_118
*28843 FILLER_8_1182
*28844 FILLER_8_1185
*28845 FILLER_8_1188
*28846 FILLER_8_1191
*28847 FILLER_8_1194
*28848 FILLER_8_1197
*28849 FILLER_8_12
*28850 FILLER_8_1200
*28851 FILLER_8_1203
*28852 FILLER_8_1205
*28853 FILLER_8_1208
*28854 FILLER_8_121
*28855 FILLER_8_1211
*28856 FILLER_8_1214
*28857 FILLER_8_1217
*28858 FILLER_8_1220
*28859 FILLER_8_1223
*28860 FILLER_8_1226
*28861 FILLER_8_1229
*28862 FILLER_8_1232
*28863 FILLER_8_1235
*28864 FILLER_8_1238
*28865 FILLER_8_124
*28866 FILLER_8_1241
*28867 FILLER_8_1244
*28868 FILLER_8_1247
*28869 FILLER_8_1250
*28870 FILLER_8_1253
*28871 FILLER_8_1256
*28872 FILLER_8_1259
*28873 FILLER_8_1261
*28874 FILLER_8_1264
*28875 FILLER_8_1267
*28876 FILLER_8_127
*28877 FILLER_8_1270
*28878 FILLER_8_1273
*28879 FILLER_8_1276
*28880 FILLER_8_1279
*28881 FILLER_8_1282
*28882 FILLER_8_1285
*28883 FILLER_8_1288
*28884 FILLER_8_1291
*28885 FILLER_8_1294
*28886 FILLER_8_1297
*28887 FILLER_8_130
*28888 FILLER_8_1300
*28889 FILLER_8_1303
*28890 FILLER_8_1306
*28891 FILLER_8_1309
*28892 FILLER_8_1312
*28893 FILLER_8_1315
*28894 FILLER_8_1317
*28895 FILLER_8_1320
*28896 FILLER_8_1323
*28897 FILLER_8_1326
*28898 FILLER_8_1329
*28899 FILLER_8_133
*28900 FILLER_8_1332
*28901 FILLER_8_1335
*28902 FILLER_8_1338
*28903 FILLER_8_1341
*28904 FILLER_8_1344
*28905 FILLER_8_1347
*28906 FILLER_8_1350
*28907 FILLER_8_1353
*28908 FILLER_8_1356
*28909 FILLER_8_1359
*28910 FILLER_8_136
*28911 FILLER_8_1362
*28912 FILLER_8_139
*28913 FILLER_8_141
*28914 FILLER_8_144
*28915 FILLER_8_147
*28916 FILLER_8_15
*28917 FILLER_8_150
*28918 FILLER_8_153
*28919 FILLER_8_156
*28920 FILLER_8_159
*28921 FILLER_8_162
*28922 FILLER_8_165
*28923 FILLER_8_168
*28924 FILLER_8_171
*28925 FILLER_8_174
*28926 FILLER_8_177
*28927 FILLER_8_18
*28928 FILLER_8_180
*28929 FILLER_8_183
*28930 FILLER_8_186
*28931 FILLER_8_189
*28932 FILLER_8_192
*28933 FILLER_8_195
*28934 FILLER_8_197
*28935 FILLER_8_200
*28936 FILLER_8_203
*28937 FILLER_8_206
*28938 FILLER_8_209
*28939 FILLER_8_21
*28940 FILLER_8_212
*28941 FILLER_8_215
*28942 FILLER_8_218
*28943 FILLER_8_221
*28944 FILLER_8_224
*28945 FILLER_8_227
*28946 FILLER_8_230
*28947 FILLER_8_233
*28948 FILLER_8_236
*28949 FILLER_8_239
*28950 FILLER_8_24
*28951 FILLER_8_242
*28952 FILLER_8_245
*28953 FILLER_8_248
*28954 FILLER_8_251
*28955 FILLER_8_253
*28956 FILLER_8_256
*28957 FILLER_8_259
*28958 FILLER_8_262
*28959 FILLER_8_265
*28960 FILLER_8_268
*28961 FILLER_8_27
*28962 FILLER_8_271
*28963 FILLER_8_274
*28964 FILLER_8_277
*28965 FILLER_8_280
*28966 FILLER_8_283
*28967 FILLER_8_286
*28968 FILLER_8_289
*28969 FILLER_8_29
*28970 FILLER_8_292
*28971 FILLER_8_295
*28972 FILLER_8_298
*28973 FILLER_8_3
*28974 FILLER_8_301
*28975 FILLER_8_304
*28976 FILLER_8_307
*28977 FILLER_8_309
*28978 FILLER_8_312
*28979 FILLER_8_315
*28980 FILLER_8_318
*28981 FILLER_8_32
*28982 FILLER_8_321
*28983 FILLER_8_324
*28984 FILLER_8_327
*28985 FILLER_8_330
*28986 FILLER_8_333
*28987 FILLER_8_336
*28988 FILLER_8_339
*28989 FILLER_8_342
*28990 FILLER_8_345
*28991 FILLER_8_348
*28992 FILLER_8_35
*28993 FILLER_8_351
*28994 FILLER_8_354
*28995 FILLER_8_357
*28996 FILLER_8_360
*28997 FILLER_8_363
*28998 FILLER_8_365
*28999 FILLER_8_368
*29000 FILLER_8_371
*29001 FILLER_8_374
*29002 FILLER_8_377
*29003 FILLER_8_38
*29004 FILLER_8_380
*29005 FILLER_8_383
*29006 FILLER_8_386
*29007 FILLER_8_389
*29008 FILLER_8_392
*29009 FILLER_8_395
*29010 FILLER_8_398
*29011 FILLER_8_401
*29012 FILLER_8_404
*29013 FILLER_8_407
*29014 FILLER_8_41
*29015 FILLER_8_410
*29016 FILLER_8_413
*29017 FILLER_8_416
*29018 FILLER_8_419
*29019 FILLER_8_421
*29020 FILLER_8_424
*29021 FILLER_8_427
*29022 FILLER_8_430
*29023 FILLER_8_433
*29024 FILLER_8_436
*29025 FILLER_8_439
*29026 FILLER_8_44
*29027 FILLER_8_442
*29028 FILLER_8_445
*29029 FILLER_8_448
*29030 FILLER_8_451
*29031 FILLER_8_454
*29032 FILLER_8_457
*29033 FILLER_8_460
*29034 FILLER_8_463
*29035 FILLER_8_466
*29036 FILLER_8_469
*29037 FILLER_8_47
*29038 FILLER_8_472
*29039 FILLER_8_475
*29040 FILLER_8_477
*29041 FILLER_8_480
*29042 FILLER_8_483
*29043 FILLER_8_486
*29044 FILLER_8_489
*29045 FILLER_8_492
*29046 FILLER_8_495
*29047 FILLER_8_498
*29048 FILLER_8_50
*29049 FILLER_8_501
*29050 FILLER_8_504
*29051 FILLER_8_507
*29052 FILLER_8_510
*29053 FILLER_8_513
*29054 FILLER_8_516
*29055 FILLER_8_519
*29056 FILLER_8_522
*29057 FILLER_8_525
*29058 FILLER_8_528
*29059 FILLER_8_53
*29060 FILLER_8_531
*29061 FILLER_8_533
*29062 FILLER_8_536
*29063 FILLER_8_539
*29064 FILLER_8_542
*29065 FILLER_8_545
*29066 FILLER_8_548
*29067 FILLER_8_551
*29068 FILLER_8_554
*29069 FILLER_8_557
*29070 FILLER_8_56
*29071 FILLER_8_560
*29072 FILLER_8_563
*29073 FILLER_8_566
*29074 FILLER_8_569
*29075 FILLER_8_572
*29076 FILLER_8_575
*29077 FILLER_8_578
*29078 FILLER_8_581
*29079 FILLER_8_584
*29080 FILLER_8_587
*29081 FILLER_8_589
*29082 FILLER_8_59
*29083 FILLER_8_592
*29084 FILLER_8_595
*29085 FILLER_8_598
*29086 FILLER_8_6
*29087 FILLER_8_601
*29088 FILLER_8_604
*29089 FILLER_8_607
*29090 FILLER_8_610
*29091 FILLER_8_613
*29092 FILLER_8_616
*29093 FILLER_8_619
*29094 FILLER_8_62
*29095 FILLER_8_622
*29096 FILLER_8_625
*29097 FILLER_8_628
*29098 FILLER_8_631
*29099 FILLER_8_634
*29100 FILLER_8_637
*29101 FILLER_8_640
*29102 FILLER_8_643
*29103 FILLER_8_645
*29104 FILLER_8_648
*29105 FILLER_8_65
*29106 FILLER_8_651
*29107 FILLER_8_654
*29108 FILLER_8_657
*29109 FILLER_8_660
*29110 FILLER_8_663
*29111 FILLER_8_666
*29112 FILLER_8_669
*29113 FILLER_8_672
*29114 FILLER_8_675
*29115 FILLER_8_678
*29116 FILLER_8_68
*29117 FILLER_8_681
*29118 FILLER_8_684
*29119 FILLER_8_687
*29120 FILLER_8_690
*29121 FILLER_8_693
*29122 FILLER_8_696
*29123 FILLER_8_699
*29124 FILLER_8_701
*29125 FILLER_8_704
*29126 FILLER_8_707
*29127 FILLER_8_71
*29128 FILLER_8_710
*29129 FILLER_8_713
*29130 FILLER_8_716
*29131 FILLER_8_719
*29132 FILLER_8_722
*29133 FILLER_8_725
*29134 FILLER_8_728
*29135 FILLER_8_731
*29136 FILLER_8_734
*29137 FILLER_8_737
*29138 FILLER_8_74
*29139 FILLER_8_740
*29140 FILLER_8_743
*29141 FILLER_8_746
*29142 FILLER_8_749
*29143 FILLER_8_752
*29144 FILLER_8_755
*29145 FILLER_8_757
*29146 FILLER_8_760
*29147 FILLER_8_763
*29148 FILLER_8_766
*29149 FILLER_8_769
*29150 FILLER_8_77
*29151 FILLER_8_772
*29152 FILLER_8_775
*29153 FILLER_8_778
*29154 FILLER_8_781
*29155 FILLER_8_784
*29156 FILLER_8_787
*29157 FILLER_8_790
*29158 FILLER_8_793
*29159 FILLER_8_796
*29160 FILLER_8_799
*29161 FILLER_8_80
*29162 FILLER_8_802
*29163 FILLER_8_805
*29164 FILLER_8_808
*29165 FILLER_8_811
*29166 FILLER_8_813
*29167 FILLER_8_816
*29168 FILLER_8_819
*29169 FILLER_8_822
*29170 FILLER_8_825
*29171 FILLER_8_828
*29172 FILLER_8_83
*29173 FILLER_8_831
*29174 FILLER_8_834
*29175 FILLER_8_837
*29176 FILLER_8_840
*29177 FILLER_8_843
*29178 FILLER_8_846
*29179 FILLER_8_849
*29180 FILLER_8_85
*29181 FILLER_8_852
*29182 FILLER_8_855
*29183 FILLER_8_858
*29184 FILLER_8_861
*29185 FILLER_8_864
*29186 FILLER_8_867
*29187 FILLER_8_869
*29188 FILLER_8_872
*29189 FILLER_8_875
*29190 FILLER_8_878
*29191 FILLER_8_88
*29192 FILLER_8_881
*29193 FILLER_8_884
*29194 FILLER_8_887
*29195 FILLER_8_890
*29196 FILLER_8_893
*29197 FILLER_8_896
*29198 FILLER_8_899
*29199 FILLER_8_9
*29200 FILLER_8_902
*29201 FILLER_8_905
*29202 FILLER_8_908
*29203 FILLER_8_91
*29204 FILLER_8_911
*29205 FILLER_8_914
*29206 FILLER_8_917
*29207 FILLER_8_920
*29208 FILLER_8_923
*29209 FILLER_8_925
*29210 FILLER_8_928
*29211 FILLER_8_931
*29212 FILLER_8_934
*29213 FILLER_8_937
*29214 FILLER_8_94
*29215 FILLER_8_940
*29216 FILLER_8_943
*29217 FILLER_8_946
*29218 FILLER_8_949
*29219 FILLER_8_952
*29220 FILLER_8_955
*29221 FILLER_8_958
*29222 FILLER_8_961
*29223 FILLER_8_964
*29224 FILLER_8_967
*29225 FILLER_8_97
*29226 FILLER_8_970
*29227 FILLER_8_973
*29228 FILLER_8_976
*29229 FILLER_8_979
*29230 FILLER_8_981
*29231 FILLER_8_984
*29232 FILLER_8_987
*29233 FILLER_8_990
*29234 FILLER_8_993
*29235 FILLER_8_996
*29236 FILLER_8_999
*29237 FILLER_90_100
*29238 FILLER_90_103
*29239 FILLER_90_106
*29240 FILLER_90_109
*29241 FILLER_90_112
*29242 FILLER_90_12
*29243 FILLER_90_1208
*29244 FILLER_90_1211
*29245 FILLER_90_1214
*29246 FILLER_90_1217
*29247 FILLER_90_1220
*29248 FILLER_90_1223
*29249 FILLER_90_1226
*29250 FILLER_90_1229
*29251 FILLER_90_1232
*29252 FILLER_90_1234
*29253 FILLER_90_1237
*29254 FILLER_90_1240
*29255 FILLER_90_1243
*29256 FILLER_90_1246
*29257 FILLER_90_1249
*29258 FILLER_90_1252
*29259 FILLER_90_1255
*29260 FILLER_90_1258
*29261 FILLER_90_1261
*29262 FILLER_90_1264
*29263 FILLER_90_1267
*29264 FILLER_90_1270
*29265 FILLER_90_1273
*29266 FILLER_90_1276
*29267 FILLER_90_1279
*29268 FILLER_90_1282
*29269 FILLER_90_1285
*29270 FILLER_90_1288
*29271 FILLER_90_1290
*29272 FILLER_90_1293
*29273 FILLER_90_1296
*29274 FILLER_90_1299
*29275 FILLER_90_1302
*29276 FILLER_90_1305
*29277 FILLER_90_1308
*29278 FILLER_90_1311
*29279 FILLER_90_1314
*29280 FILLER_90_1317
*29281 FILLER_90_1320
*29282 FILLER_90_1323
*29283 FILLER_90_1326
*29284 FILLER_90_1329
*29285 FILLER_90_1332
*29286 FILLER_90_1335
*29287 FILLER_90_1338
*29288 FILLER_90_1341
*29289 FILLER_90_1344
*29290 FILLER_90_1346
*29291 FILLER_90_1349
*29292 FILLER_90_1352
*29293 FILLER_90_1355
*29294 FILLER_90_1358
*29295 FILLER_90_1361
*29296 FILLER_90_15
*29297 FILLER_90_18
*29298 FILLER_90_21
*29299 FILLER_90_24
*29300 FILLER_90_27
*29301 FILLER_90_29
*29302 FILLER_90_3
*29303 FILLER_90_32
*29304 FILLER_90_35
*29305 FILLER_90_38
*29306 FILLER_90_41
*29307 FILLER_90_44
*29308 FILLER_90_47
*29309 FILLER_90_50
*29310 FILLER_90_53
*29311 FILLER_90_56
*29312 FILLER_90_59
*29313 FILLER_90_6
*29314 FILLER_90_62
*29315 FILLER_90_65
*29316 FILLER_90_68
*29317 FILLER_90_71
*29318 FILLER_90_74
*29319 FILLER_90_77
*29320 FILLER_90_80
*29321 FILLER_90_83
*29322 FILLER_90_85
*29323 FILLER_90_88
*29324 FILLER_90_9
*29325 FILLER_90_91
*29326 FILLER_90_94
*29327 FILLER_90_97
*29328 FILLER_91_102
*29329 FILLER_91_105
*29330 FILLER_91_108
*29331 FILLER_91_111
*29332 FILLER_91_113
*29333 FILLER_91_12
*29334 FILLER_91_1208
*29335 FILLER_91_1211
*29336 FILLER_91_1214
*29337 FILLER_91_1217
*29338 FILLER_91_1220
*29339 FILLER_91_1223
*29340 FILLER_91_1226
*29341 FILLER_91_1229
*29342 FILLER_91_1232
*29343 FILLER_91_1235
*29344 FILLER_91_1238
*29345 FILLER_91_1241
*29346 FILLER_91_1244
*29347 FILLER_91_1247
*29348 FILLER_91_1250
*29349 FILLER_91_1253
*29350 FILLER_91_1256
*29351 FILLER_91_1259
*29352 FILLER_91_1262
*29353 FILLER_91_1265
*29354 FILLER_91_1268
*29355 FILLER_91_1271
*29356 FILLER_91_1274
*29357 FILLER_91_1277
*29358 FILLER_91_1280
*29359 FILLER_91_1283
*29360 FILLER_91_1286
*29361 FILLER_91_1289
*29362 FILLER_91_1292
*29363 FILLER_91_1295
*29364 FILLER_91_1298
*29365 FILLER_91_1301
*29366 FILLER_91_1304
*29367 FILLER_91_1307
*29368 FILLER_91_1310
*29369 FILLER_91_1313
*29370 FILLER_91_1316
*29371 FILLER_91_1318
*29372 FILLER_91_1321
*29373 FILLER_91_1324
*29374 FILLER_91_1327
*29375 FILLER_91_1330
*29376 FILLER_91_1333
*29377 FILLER_91_1336
*29378 FILLER_91_1339
*29379 FILLER_91_1342
*29380 FILLER_91_1345
*29381 FILLER_91_1348
*29382 FILLER_91_1351
*29383 FILLER_91_1354
*29384 FILLER_91_1357
*29385 FILLER_91_1360
*29386 FILLER_91_1363
*29387 FILLER_91_15
*29388 FILLER_91_18
*29389 FILLER_91_21
*29390 FILLER_91_24
*29391 FILLER_91_27
*29392 FILLER_91_3
*29393 FILLER_91_30
*29394 FILLER_91_33
*29395 FILLER_91_36
*29396 FILLER_91_39
*29397 FILLER_91_42
*29398 FILLER_91_45
*29399 FILLER_91_48
*29400 FILLER_91_51
*29401 FILLER_91_54
*29402 FILLER_91_57
*29403 FILLER_91_6
*29404 FILLER_91_60
*29405 FILLER_91_63
*29406 FILLER_91_66
*29407 FILLER_91_69
*29408 FILLER_91_72
*29409 FILLER_91_75
*29410 FILLER_91_78
*29411 FILLER_91_81
*29412 FILLER_91_84
*29413 FILLER_91_87
*29414 FILLER_91_9
*29415 FILLER_91_90
*29416 FILLER_91_93
*29417 FILLER_91_96
*29418 FILLER_91_99
*29419 FILLER_92_100
*29420 FILLER_92_103
*29421 FILLER_92_106
*29422 FILLER_92_109
*29423 FILLER_92_112
*29424 FILLER_92_12
*29425 FILLER_92_1208
*29426 FILLER_92_1211
*29427 FILLER_92_1214
*29428 FILLER_92_1217
*29429 FILLER_92_1220
*29430 FILLER_92_1223
*29431 FILLER_92_1226
*29432 FILLER_92_1229
*29433 FILLER_92_1232
*29434 FILLER_92_1234
*29435 FILLER_92_1237
*29436 FILLER_92_1240
*29437 FILLER_92_1243
*29438 FILLER_92_1246
*29439 FILLER_92_1249
*29440 FILLER_92_1252
*29441 FILLER_92_1255
*29442 FILLER_92_1258
*29443 FILLER_92_1261
*29444 FILLER_92_1264
*29445 FILLER_92_1267
*29446 FILLER_92_1270
*29447 FILLER_92_1273
*29448 FILLER_92_1276
*29449 FILLER_92_1279
*29450 FILLER_92_1282
*29451 FILLER_92_1285
*29452 FILLER_92_1288
*29453 FILLER_92_1290
*29454 FILLER_92_1293
*29455 FILLER_92_1296
*29456 FILLER_92_1299
*29457 FILLER_92_1302
*29458 FILLER_92_1305
*29459 FILLER_92_1308
*29460 FILLER_92_1311
*29461 FILLER_92_1314
*29462 FILLER_92_1317
*29463 FILLER_92_1320
*29464 FILLER_92_1323
*29465 FILLER_92_1326
*29466 FILLER_92_1329
*29467 FILLER_92_1332
*29468 FILLER_92_1335
*29469 FILLER_92_1338
*29470 FILLER_92_1341
*29471 FILLER_92_1344
*29472 FILLER_92_1346
*29473 FILLER_92_1349
*29474 FILLER_92_1352
*29475 FILLER_92_1355
*29476 FILLER_92_1358
*29477 FILLER_92_1361
*29478 FILLER_92_15
*29479 FILLER_92_18
*29480 FILLER_92_21
*29481 FILLER_92_24
*29482 FILLER_92_27
*29483 FILLER_92_29
*29484 FILLER_92_3
*29485 FILLER_92_32
*29486 FILLER_92_35
*29487 FILLER_92_38
*29488 FILLER_92_41
*29489 FILLER_92_44
*29490 FILLER_92_47
*29491 FILLER_92_50
*29492 FILLER_92_53
*29493 FILLER_92_56
*29494 FILLER_92_59
*29495 FILLER_92_6
*29496 FILLER_92_62
*29497 FILLER_92_65
*29498 FILLER_92_68
*29499 FILLER_92_71
*29500 FILLER_92_74
*29501 FILLER_92_77
*29502 FILLER_92_80
*29503 FILLER_92_83
*29504 FILLER_92_85
*29505 FILLER_92_88
*29506 FILLER_92_9
*29507 FILLER_92_91
*29508 FILLER_92_94
*29509 FILLER_92_97
*29510 FILLER_93_102
*29511 FILLER_93_105
*29512 FILLER_93_108
*29513 FILLER_93_111
*29514 FILLER_93_113
*29515 FILLER_93_12
*29516 FILLER_93_1208
*29517 FILLER_93_1211
*29518 FILLER_93_1214
*29519 FILLER_93_1217
*29520 FILLER_93_1220
*29521 FILLER_93_1223
*29522 FILLER_93_1226
*29523 FILLER_93_1229
*29524 FILLER_93_1232
*29525 FILLER_93_1235
*29526 FILLER_93_1238
*29527 FILLER_93_1241
*29528 FILLER_93_1244
*29529 FILLER_93_1247
*29530 FILLER_93_1250
*29531 FILLER_93_1253
*29532 FILLER_93_1256
*29533 FILLER_93_1259
*29534 FILLER_93_1262
*29535 FILLER_93_1265
*29536 FILLER_93_1268
*29537 FILLER_93_1271
*29538 FILLER_93_1274
*29539 FILLER_93_1277
*29540 FILLER_93_1280
*29541 FILLER_93_1283
*29542 FILLER_93_1286
*29543 FILLER_93_1289
*29544 FILLER_93_1292
*29545 FILLER_93_1295
*29546 FILLER_93_1298
*29547 FILLER_93_1301
*29548 FILLER_93_1304
*29549 FILLER_93_1307
*29550 FILLER_93_1310
*29551 FILLER_93_1313
*29552 FILLER_93_1316
*29553 FILLER_93_1318
*29554 FILLER_93_1321
*29555 FILLER_93_1324
*29556 FILLER_93_1327
*29557 FILLER_93_1330
*29558 FILLER_93_1333
*29559 FILLER_93_1336
*29560 FILLER_93_1339
*29561 FILLER_93_1342
*29562 FILLER_93_1345
*29563 FILLER_93_1348
*29564 FILLER_93_1351
*29565 FILLER_93_1354
*29566 FILLER_93_1357
*29567 FILLER_93_1360
*29568 FILLER_93_1363
*29569 FILLER_93_15
*29570 FILLER_93_18
*29571 FILLER_93_21
*29572 FILLER_93_24
*29573 FILLER_93_27
*29574 FILLER_93_3
*29575 FILLER_93_30
*29576 FILLER_93_33
*29577 FILLER_93_36
*29578 FILLER_93_39
*29579 FILLER_93_42
*29580 FILLER_93_45
*29581 FILLER_93_48
*29582 FILLER_93_51
*29583 FILLER_93_54
*29584 FILLER_93_57
*29585 FILLER_93_6
*29586 FILLER_93_60
*29587 FILLER_93_63
*29588 FILLER_93_66
*29589 FILLER_93_69
*29590 FILLER_93_72
*29591 FILLER_93_75
*29592 FILLER_93_78
*29593 FILLER_93_81
*29594 FILLER_93_84
*29595 FILLER_93_87
*29596 FILLER_93_9
*29597 FILLER_93_90
*29598 FILLER_93_93
*29599 FILLER_93_96
*29600 FILLER_93_99
*29601 FILLER_94_100
*29602 FILLER_94_103
*29603 FILLER_94_106
*29604 FILLER_94_109
*29605 FILLER_94_112
*29606 FILLER_94_12
*29607 FILLER_94_1208
*29608 FILLER_94_1211
*29609 FILLER_94_1214
*29610 FILLER_94_1217
*29611 FILLER_94_1220
*29612 FILLER_94_1223
*29613 FILLER_94_1226
*29614 FILLER_94_1229
*29615 FILLER_94_1232
*29616 FILLER_94_1234
*29617 FILLER_94_1237
*29618 FILLER_94_1240
*29619 FILLER_94_1243
*29620 FILLER_94_1246
*29621 FILLER_94_1249
*29622 FILLER_94_1252
*29623 FILLER_94_1255
*29624 FILLER_94_1258
*29625 FILLER_94_1261
*29626 FILLER_94_1264
*29627 FILLER_94_1267
*29628 FILLER_94_1270
*29629 FILLER_94_1273
*29630 FILLER_94_1276
*29631 FILLER_94_1279
*29632 FILLER_94_1282
*29633 FILLER_94_1285
*29634 FILLER_94_1288
*29635 FILLER_94_1290
*29636 FILLER_94_1293
*29637 FILLER_94_1296
*29638 FILLER_94_1299
*29639 FILLER_94_1302
*29640 FILLER_94_1305
*29641 FILLER_94_1308
*29642 FILLER_94_1311
*29643 FILLER_94_1314
*29644 FILLER_94_1317
*29645 FILLER_94_1320
*29646 FILLER_94_1323
*29647 FILLER_94_1326
*29648 FILLER_94_1329
*29649 FILLER_94_1332
*29650 FILLER_94_1335
*29651 FILLER_94_1338
*29652 FILLER_94_1341
*29653 FILLER_94_1344
*29654 FILLER_94_1346
*29655 FILLER_94_1349
*29656 FILLER_94_1352
*29657 FILLER_94_1355
*29658 FILLER_94_1358
*29659 FILLER_94_1361
*29660 FILLER_94_15
*29661 FILLER_94_18
*29662 FILLER_94_21
*29663 FILLER_94_24
*29664 FILLER_94_27
*29665 FILLER_94_29
*29666 FILLER_94_3
*29667 FILLER_94_32
*29668 FILLER_94_35
*29669 FILLER_94_38
*29670 FILLER_94_41
*29671 FILLER_94_44
*29672 FILLER_94_47
*29673 FILLER_94_50
*29674 FILLER_94_53
*29675 FILLER_94_56
*29676 FILLER_94_59
*29677 FILLER_94_6
*29678 FILLER_94_62
*29679 FILLER_94_65
*29680 FILLER_94_68
*29681 FILLER_94_71
*29682 FILLER_94_74
*29683 FILLER_94_77
*29684 FILLER_94_80
*29685 FILLER_94_83
*29686 FILLER_94_85
*29687 FILLER_94_88
*29688 FILLER_94_9
*29689 FILLER_94_91
*29690 FILLER_94_94
*29691 FILLER_94_97
*29692 FILLER_95_102
*29693 FILLER_95_105
*29694 FILLER_95_108
*29695 FILLER_95_111
*29696 FILLER_95_113
*29697 FILLER_95_12
*29698 FILLER_95_1208
*29699 FILLER_95_1211
*29700 FILLER_95_1214
*29701 FILLER_95_1217
*29702 FILLER_95_1220
*29703 FILLER_95_1223
*29704 FILLER_95_1226
*29705 FILLER_95_1229
*29706 FILLER_95_1232
*29707 FILLER_95_1235
*29708 FILLER_95_1238
*29709 FILLER_95_1241
*29710 FILLER_95_1244
*29711 FILLER_95_1247
*29712 FILLER_95_1250
*29713 FILLER_95_1253
*29714 FILLER_95_1256
*29715 FILLER_95_1259
*29716 FILLER_95_1262
*29717 FILLER_95_1265
*29718 FILLER_95_1268
*29719 FILLER_95_1271
*29720 FILLER_95_1274
*29721 FILLER_95_1277
*29722 FILLER_95_1280
*29723 FILLER_95_1283
*29724 FILLER_95_1286
*29725 FILLER_95_1289
*29726 FILLER_95_1292
*29727 FILLER_95_1295
*29728 FILLER_95_1298
*29729 FILLER_95_1301
*29730 FILLER_95_1304
*29731 FILLER_95_1307
*29732 FILLER_95_1310
*29733 FILLER_95_1313
*29734 FILLER_95_1316
*29735 FILLER_95_1318
*29736 FILLER_95_1321
*29737 FILLER_95_1324
*29738 FILLER_95_1327
*29739 FILLER_95_1330
*29740 FILLER_95_1333
*29741 FILLER_95_1336
*29742 FILLER_95_1339
*29743 FILLER_95_1342
*29744 FILLER_95_1345
*29745 FILLER_95_1348
*29746 FILLER_95_1351
*29747 FILLER_95_1354
*29748 FILLER_95_1357
*29749 FILLER_95_1360
*29750 FILLER_95_1363
*29751 FILLER_95_15
*29752 FILLER_95_18
*29753 FILLER_95_21
*29754 FILLER_95_24
*29755 FILLER_95_27
*29756 FILLER_95_3
*29757 FILLER_95_30
*29758 FILLER_95_33
*29759 FILLER_95_36
*29760 FILLER_95_39
*29761 FILLER_95_42
*29762 FILLER_95_45
*29763 FILLER_95_48
*29764 FILLER_95_51
*29765 FILLER_95_54
*29766 FILLER_95_57
*29767 FILLER_95_6
*29768 FILLER_95_60
*29769 FILLER_95_63
*29770 FILLER_95_66
*29771 FILLER_95_69
*29772 FILLER_95_72
*29773 FILLER_95_75
*29774 FILLER_95_78
*29775 FILLER_95_81
*29776 FILLER_95_84
*29777 FILLER_95_87
*29778 FILLER_95_9
*29779 FILLER_95_90
*29780 FILLER_95_93
*29781 FILLER_95_96
*29782 FILLER_95_99
*29783 FILLER_96_100
*29784 FILLER_96_103
*29785 FILLER_96_106
*29786 FILLER_96_109
*29787 FILLER_96_112
*29788 FILLER_96_12
*29789 FILLER_96_1208
*29790 FILLER_96_1211
*29791 FILLER_96_1214
*29792 FILLER_96_1217
*29793 FILLER_96_1220
*29794 FILLER_96_1223
*29795 FILLER_96_1226
*29796 FILLER_96_1229
*29797 FILLER_96_1232
*29798 FILLER_96_1234
*29799 FILLER_96_1237
*29800 FILLER_96_1240
*29801 FILLER_96_1243
*29802 FILLER_96_1246
*29803 FILLER_96_1249
*29804 FILLER_96_1252
*29805 FILLER_96_1255
*29806 FILLER_96_1258
*29807 FILLER_96_1261
*29808 FILLER_96_1264
*29809 FILLER_96_1267
*29810 FILLER_96_1270
*29811 FILLER_96_1273
*29812 FILLER_96_1276
*29813 FILLER_96_1279
*29814 FILLER_96_1282
*29815 FILLER_96_1285
*29816 FILLER_96_1288
*29817 FILLER_96_1290
*29818 FILLER_96_1293
*29819 FILLER_96_1296
*29820 FILLER_96_1299
*29821 FILLER_96_1302
*29822 FILLER_96_1305
*29823 FILLER_96_1308
*29824 FILLER_96_1311
*29825 FILLER_96_1314
*29826 FILLER_96_1317
*29827 FILLER_96_1320
*29828 FILLER_96_1323
*29829 FILLER_96_1326
*29830 FILLER_96_1329
*29831 FILLER_96_1332
*29832 FILLER_96_1335
*29833 FILLER_96_1338
*29834 FILLER_96_1341
*29835 FILLER_96_1344
*29836 FILLER_96_1346
*29837 FILLER_96_1349
*29838 FILLER_96_1352
*29839 FILLER_96_1355
*29840 FILLER_96_1358
*29841 FILLER_96_1361
*29842 FILLER_96_15
*29843 FILLER_96_18
*29844 FILLER_96_21
*29845 FILLER_96_24
*29846 FILLER_96_27
*29847 FILLER_96_29
*29848 FILLER_96_3
*29849 FILLER_96_32
*29850 FILLER_96_35
*29851 FILLER_96_38
*29852 FILLER_96_41
*29853 FILLER_96_44
*29854 FILLER_96_47
*29855 FILLER_96_50
*29856 FILLER_96_53
*29857 FILLER_96_56
*29858 FILLER_96_59
*29859 FILLER_96_6
*29860 FILLER_96_62
*29861 FILLER_96_65
*29862 FILLER_96_68
*29863 FILLER_96_71
*29864 FILLER_96_74
*29865 FILLER_96_77
*29866 FILLER_96_80
*29867 FILLER_96_83
*29868 FILLER_96_85
*29869 FILLER_96_88
*29870 FILLER_96_9
*29871 FILLER_96_91
*29872 FILLER_96_94
*29873 FILLER_96_97
*29874 FILLER_97_102
*29875 FILLER_97_105
*29876 FILLER_97_108
*29877 FILLER_97_111
*29878 FILLER_97_113
*29879 FILLER_97_12
*29880 FILLER_97_1208
*29881 FILLER_97_1211
*29882 FILLER_97_1214
*29883 FILLER_97_1217
*29884 FILLER_97_1220
*29885 FILLER_97_1223
*29886 FILLER_97_1226
*29887 FILLER_97_1229
*29888 FILLER_97_1232
*29889 FILLER_97_1235
*29890 FILLER_97_1238
*29891 FILLER_97_1241
*29892 FILLER_97_1244
*29893 FILLER_97_1247
*29894 FILLER_97_1250
*29895 FILLER_97_1253
*29896 FILLER_97_1256
*29897 FILLER_97_1259
*29898 FILLER_97_1262
*29899 FILLER_97_1265
*29900 FILLER_97_1268
*29901 FILLER_97_1271
*29902 FILLER_97_1274
*29903 FILLER_97_1277
*29904 FILLER_97_1280
*29905 FILLER_97_1283
*29906 FILLER_97_1286
*29907 FILLER_97_1289
*29908 FILLER_97_1292
*29909 FILLER_97_1295
*29910 FILLER_97_1298
*29911 FILLER_97_1301
*29912 FILLER_97_1304
*29913 FILLER_97_1307
*29914 FILLER_97_1310
*29915 FILLER_97_1313
*29916 FILLER_97_1316
*29917 FILLER_97_1318
*29918 FILLER_97_1321
*29919 FILLER_97_1324
*29920 FILLER_97_1327
*29921 FILLER_97_1330
*29922 FILLER_97_1333
*29923 FILLER_97_1336
*29924 FILLER_97_1339
*29925 FILLER_97_1342
*29926 FILLER_97_1345
*29927 FILLER_97_1348
*29928 FILLER_97_1351
*29929 FILLER_97_1354
*29930 FILLER_97_1357
*29931 FILLER_97_1360
*29932 FILLER_97_1363
*29933 FILLER_97_15
*29934 FILLER_97_18
*29935 FILLER_97_21
*29936 FILLER_97_24
*29937 FILLER_97_27
*29938 FILLER_97_3
*29939 FILLER_97_30
*29940 FILLER_97_33
*29941 FILLER_97_36
*29942 FILLER_97_39
*29943 FILLER_97_42
*29944 FILLER_97_45
*29945 FILLER_97_48
*29946 FILLER_97_51
*29947 FILLER_97_54
*29948 FILLER_97_57
*29949 FILLER_97_6
*29950 FILLER_97_60
*29951 FILLER_97_63
*29952 FILLER_97_66
*29953 FILLER_97_69
*29954 FILLER_97_72
*29955 FILLER_97_75
*29956 FILLER_97_78
*29957 FILLER_97_81
*29958 FILLER_97_84
*29959 FILLER_97_87
*29960 FILLER_97_9
*29961 FILLER_97_90
*29962 FILLER_97_93
*29963 FILLER_97_96
*29964 FILLER_97_99
*29965 FILLER_98_100
*29966 FILLER_98_103
*29967 FILLER_98_106
*29968 FILLER_98_109
*29969 FILLER_98_112
*29970 FILLER_98_12
*29971 FILLER_98_1208
*29972 FILLER_98_1211
*29973 FILLER_98_1214
*29974 FILLER_98_1217
*29975 FILLER_98_1220
*29976 FILLER_98_1223
*29977 FILLER_98_1226
*29978 FILLER_98_1229
*29979 FILLER_98_1232
*29980 FILLER_98_1234
*29981 FILLER_98_1237
*29982 FILLER_98_1240
*29983 FILLER_98_1243
*29984 FILLER_98_1246
*29985 FILLER_98_1249
*29986 FILLER_98_1252
*29987 FILLER_98_1255
*29988 FILLER_98_1258
*29989 FILLER_98_1261
*29990 FILLER_98_1264
*29991 FILLER_98_1267
*29992 FILLER_98_1270
*29993 FILLER_98_1273
*29994 FILLER_98_1276
*29995 FILLER_98_1279
*29996 FILLER_98_1282
*29997 FILLER_98_1285
*29998 FILLER_98_1288
*29999 FILLER_98_1290
*30000 FILLER_98_1293
*30001 FILLER_98_1296
*30002 FILLER_98_1299
*30003 FILLER_98_1302
*30004 FILLER_98_1305
*30005 FILLER_98_1308
*30006 FILLER_98_1311
*30007 FILLER_98_1314
*30008 FILLER_98_1317
*30009 FILLER_98_1320
*30010 FILLER_98_1323
*30011 FILLER_98_1326
*30012 FILLER_98_1329
*30013 FILLER_98_1332
*30014 FILLER_98_1335
*30015 FILLER_98_1338
*30016 FILLER_98_1341
*30017 FILLER_98_1344
*30018 FILLER_98_1346
*30019 FILLER_98_1349
*30020 FILLER_98_1352
*30021 FILLER_98_1355
*30022 FILLER_98_1358
*30023 FILLER_98_1361
*30024 FILLER_98_15
*30025 FILLER_98_18
*30026 FILLER_98_21
*30027 FILLER_98_24
*30028 FILLER_98_27
*30029 FILLER_98_29
*30030 FILLER_98_3
*30031 FILLER_98_32
*30032 FILLER_98_35
*30033 FILLER_98_38
*30034 FILLER_98_41
*30035 FILLER_98_44
*30036 FILLER_98_47
*30037 FILLER_98_50
*30038 FILLER_98_53
*30039 FILLER_98_56
*30040 FILLER_98_59
*30041 FILLER_98_6
*30042 FILLER_98_62
*30043 FILLER_98_65
*30044 FILLER_98_68
*30045 FILLER_98_71
*30046 FILLER_98_74
*30047 FILLER_98_77
*30048 FILLER_98_80
*30049 FILLER_98_83
*30050 FILLER_98_85
*30051 FILLER_98_88
*30052 FILLER_98_9
*30053 FILLER_98_91
*30054 FILLER_98_94
*30055 FILLER_98_97
*30056 FILLER_99_102
*30057 FILLER_99_105
*30058 FILLER_99_108
*30059 FILLER_99_111
*30060 FILLER_99_113
*30061 FILLER_99_12
*30062 FILLER_99_1208
*30063 FILLER_99_1211
*30064 FILLER_99_1214
*30065 FILLER_99_1217
*30066 FILLER_99_1220
*30067 FILLER_99_1223
*30068 FILLER_99_1226
*30069 FILLER_99_1229
*30070 FILLER_99_1232
*30071 FILLER_99_1235
*30072 FILLER_99_1238
*30073 FILLER_99_1241
*30074 FILLER_99_1244
*30075 FILLER_99_1247
*30076 FILLER_99_1250
*30077 FILLER_99_1253
*30078 FILLER_99_1256
*30079 FILLER_99_1259
*30080 FILLER_99_1262
*30081 FILLER_99_1265
*30082 FILLER_99_1268
*30083 FILLER_99_1271
*30084 FILLER_99_1274
*30085 FILLER_99_1277
*30086 FILLER_99_1280
*30087 FILLER_99_1283
*30088 FILLER_99_1286
*30089 FILLER_99_1289
*30090 FILLER_99_1292
*30091 FILLER_99_1295
*30092 FILLER_99_1298
*30093 FILLER_99_1301
*30094 FILLER_99_1304
*30095 FILLER_99_1307
*30096 FILLER_99_1310
*30097 FILLER_99_1313
*30098 FILLER_99_1316
*30099 FILLER_99_1318
*30100 FILLER_99_1321
*30101 FILLER_99_1324
*30102 FILLER_99_1327
*30103 FILLER_99_1330
*30104 FILLER_99_1333
*30105 FILLER_99_1336
*30106 FILLER_99_1339
*30107 FILLER_99_1342
*30108 FILLER_99_1345
*30109 FILLER_99_1348
*30110 FILLER_99_1351
*30111 FILLER_99_1354
*30112 FILLER_99_1357
*30113 FILLER_99_1360
*30114 FILLER_99_1363
*30115 FILLER_99_15
*30116 FILLER_99_18
*30117 FILLER_99_21
*30118 FILLER_99_24
*30119 FILLER_99_27
*30120 FILLER_99_3
*30121 FILLER_99_30
*30122 FILLER_99_33
*30123 FILLER_99_36
*30124 FILLER_99_39
*30125 FILLER_99_42
*30126 FILLER_99_45
*30127 FILLER_99_48
*30128 FILLER_99_51
*30129 FILLER_99_54
*30130 FILLER_99_57
*30131 FILLER_99_6
*30132 FILLER_99_60
*30133 FILLER_99_63
*30134 FILLER_99_66
*30135 FILLER_99_69
*30136 FILLER_99_72
*30137 FILLER_99_75
*30138 FILLER_99_78
*30139 FILLER_99_81
*30140 FILLER_99_84
*30141 FILLER_99_87
*30142 FILLER_99_9
*30143 FILLER_99_90
*30144 FILLER_99_93
*30145 FILLER_99_96
*30146 FILLER_99_99
*30147 FILLER_9_1001
*30148 FILLER_9_1004
*30149 FILLER_9_1007
*30150 FILLER_9_1009
*30151 FILLER_9_1012
*30152 FILLER_9_1015
*30153 FILLER_9_1018
*30154 FILLER_9_102
*30155 FILLER_9_1021
*30156 FILLER_9_1024
*30157 FILLER_9_1027
*30158 FILLER_9_1030
*30159 FILLER_9_1033
*30160 FILLER_9_1036
*30161 FILLER_9_1039
*30162 FILLER_9_1042
*30163 FILLER_9_1045
*30164 FILLER_9_1048
*30165 FILLER_9_105
*30166 FILLER_9_1051
*30167 FILLER_9_1054
*30168 FILLER_9_1057
*30169 FILLER_9_1060
*30170 FILLER_9_1063
*30171 FILLER_9_1065
*30172 FILLER_9_1068
*30173 FILLER_9_1071
*30174 FILLER_9_1074
*30175 FILLER_9_1077
*30176 FILLER_9_108
*30177 FILLER_9_1080
*30178 FILLER_9_1083
*30179 FILLER_9_1086
*30180 FILLER_9_1089
*30181 FILLER_9_1092
*30182 FILLER_9_1095
*30183 FILLER_9_1098
*30184 FILLER_9_1101
*30185 FILLER_9_1104
*30186 FILLER_9_1107
*30187 FILLER_9_111
*30188 FILLER_9_1110
*30189 FILLER_9_1113
*30190 FILLER_9_1116
*30191 FILLER_9_1119
*30192 FILLER_9_1121
*30193 FILLER_9_1124
*30194 FILLER_9_1127
*30195 FILLER_9_113
*30196 FILLER_9_1130
*30197 FILLER_9_1133
*30198 FILLER_9_1136
*30199 FILLER_9_1139
*30200 FILLER_9_1142
*30201 FILLER_9_1145
*30202 FILLER_9_1148
*30203 FILLER_9_1151
*30204 FILLER_9_1154
*30205 FILLER_9_1157
*30206 FILLER_9_116
*30207 FILLER_9_1160
*30208 FILLER_9_1163
*30209 FILLER_9_1166
*30210 FILLER_9_1169
*30211 FILLER_9_1172
*30212 FILLER_9_1175
*30213 FILLER_9_1177
*30214 FILLER_9_1180
*30215 FILLER_9_1183
*30216 FILLER_9_1186
*30217 FILLER_9_1189
*30218 FILLER_9_119
*30219 FILLER_9_1192
*30220 FILLER_9_1195
*30221 FILLER_9_1198
*30222 FILLER_9_12
*30223 FILLER_9_1201
*30224 FILLER_9_1204
*30225 FILLER_9_1207
*30226 FILLER_9_1210
*30227 FILLER_9_1213
*30228 FILLER_9_1216
*30229 FILLER_9_1219
*30230 FILLER_9_122
*30231 FILLER_9_1222
*30232 FILLER_9_1225
*30233 FILLER_9_1228
*30234 FILLER_9_1231
*30235 FILLER_9_1233
*30236 FILLER_9_1236
*30237 FILLER_9_1239
*30238 FILLER_9_1242
*30239 FILLER_9_1245
*30240 FILLER_9_1248
*30241 FILLER_9_125
*30242 FILLER_9_1251
*30243 FILLER_9_1254
*30244 FILLER_9_1257
*30245 FILLER_9_1260
*30246 FILLER_9_1263
*30247 FILLER_9_1266
*30248 FILLER_9_1269
*30249 FILLER_9_1272
*30250 FILLER_9_1275
*30251 FILLER_9_1278
*30252 FILLER_9_128
*30253 FILLER_9_1281
*30254 FILLER_9_1284
*30255 FILLER_9_1287
*30256 FILLER_9_1289
*30257 FILLER_9_1292
*30258 FILLER_9_1295
*30259 FILLER_9_1298
*30260 FILLER_9_1301
*30261 FILLER_9_1304
*30262 FILLER_9_1307
*30263 FILLER_9_131
*30264 FILLER_9_1310
*30265 FILLER_9_1313
*30266 FILLER_9_1316
*30267 FILLER_9_1319
*30268 FILLER_9_1322
*30269 FILLER_9_1325
*30270 FILLER_9_1328
*30271 FILLER_9_1331
*30272 FILLER_9_1334
*30273 FILLER_9_1337
*30274 FILLER_9_134
*30275 FILLER_9_1340
*30276 FILLER_9_1343
*30277 FILLER_9_1345
*30278 FILLER_9_1348
*30279 FILLER_9_1351
*30280 FILLER_9_1354
*30281 FILLER_9_1357
*30282 FILLER_9_1360
*30283 FILLER_9_1363
*30284 FILLER_9_137
*30285 FILLER_9_140
*30286 FILLER_9_143
*30287 FILLER_9_146
*30288 FILLER_9_149
*30289 FILLER_9_15
*30290 FILLER_9_152
*30291 FILLER_9_155
*30292 FILLER_9_158
*30293 FILLER_9_161
*30294 FILLER_9_164
*30295 FILLER_9_167
*30296 FILLER_9_169
*30297 FILLER_9_172
*30298 FILLER_9_175
*30299 FILLER_9_178
*30300 FILLER_9_18
*30301 FILLER_9_181
*30302 FILLER_9_184
*30303 FILLER_9_187
*30304 FILLER_9_190
*30305 FILLER_9_193
*30306 FILLER_9_196
*30307 FILLER_9_199
*30308 FILLER_9_202
*30309 FILLER_9_205
*30310 FILLER_9_208
*30311 FILLER_9_21
*30312 FILLER_9_211
*30313 FILLER_9_214
*30314 FILLER_9_217
*30315 FILLER_9_220
*30316 FILLER_9_223
*30317 FILLER_9_225
*30318 FILLER_9_228
*30319 FILLER_9_231
*30320 FILLER_9_234
*30321 FILLER_9_237
*30322 FILLER_9_24
*30323 FILLER_9_240
*30324 FILLER_9_243
*30325 FILLER_9_246
*30326 FILLER_9_249
*30327 FILLER_9_252
*30328 FILLER_9_255
*30329 FILLER_9_258
*30330 FILLER_9_261
*30331 FILLER_9_264
*30332 FILLER_9_267
*30333 FILLER_9_27
*30334 FILLER_9_270
*30335 FILLER_9_273
*30336 FILLER_9_276
*30337 FILLER_9_279
*30338 FILLER_9_281
*30339 FILLER_9_284
*30340 FILLER_9_287
*30341 FILLER_9_290
*30342 FILLER_9_293
*30343 FILLER_9_296
*30344 FILLER_9_299
*30345 FILLER_9_3
*30346 FILLER_9_30
*30347 FILLER_9_302
*30348 FILLER_9_305
*30349 FILLER_9_308
*30350 FILLER_9_311
*30351 FILLER_9_314
*30352 FILLER_9_317
*30353 FILLER_9_320
*30354 FILLER_9_323
*30355 FILLER_9_326
*30356 FILLER_9_329
*30357 FILLER_9_33
*30358 FILLER_9_332
*30359 FILLER_9_335
*30360 FILLER_9_337
*30361 FILLER_9_340
*30362 FILLER_9_343
*30363 FILLER_9_346
*30364 FILLER_9_349
*30365 FILLER_9_352
*30366 FILLER_9_355
*30367 FILLER_9_358
*30368 FILLER_9_36
*30369 FILLER_9_361
*30370 FILLER_9_364
*30371 FILLER_9_367
*30372 FILLER_9_370
*30373 FILLER_9_373
*30374 FILLER_9_376
*30375 FILLER_9_379
*30376 FILLER_9_382
*30377 FILLER_9_385
*30378 FILLER_9_388
*30379 FILLER_9_39
*30380 FILLER_9_391
*30381 FILLER_9_393
*30382 FILLER_9_396
*30383 FILLER_9_399
*30384 FILLER_9_402
*30385 FILLER_9_405
*30386 FILLER_9_408
*30387 FILLER_9_411
*30388 FILLER_9_414
*30389 FILLER_9_417
*30390 FILLER_9_42
*30391 FILLER_9_420
*30392 FILLER_9_423
*30393 FILLER_9_426
*30394 FILLER_9_429
*30395 FILLER_9_432
*30396 FILLER_9_435
*30397 FILLER_9_438
*30398 FILLER_9_441
*30399 FILLER_9_444
*30400 FILLER_9_447
*30401 FILLER_9_449
*30402 FILLER_9_45
*30403 FILLER_9_452
*30404 FILLER_9_455
*30405 FILLER_9_458
*30406 FILLER_9_461
*30407 FILLER_9_464
*30408 FILLER_9_467
*30409 FILLER_9_470
*30410 FILLER_9_473
*30411 FILLER_9_476
*30412 FILLER_9_479
*30413 FILLER_9_48
*30414 FILLER_9_482
*30415 FILLER_9_485
*30416 FILLER_9_488
*30417 FILLER_9_491
*30418 FILLER_9_494
*30419 FILLER_9_497
*30420 FILLER_9_500
*30421 FILLER_9_503
*30422 FILLER_9_505
*30423 FILLER_9_508
*30424 FILLER_9_51
*30425 FILLER_9_511
*30426 FILLER_9_514
*30427 FILLER_9_517
*30428 FILLER_9_520
*30429 FILLER_9_523
*30430 FILLER_9_526
*30431 FILLER_9_529
*30432 FILLER_9_532
*30433 FILLER_9_535
*30434 FILLER_9_538
*30435 FILLER_9_54
*30436 FILLER_9_541
*30437 FILLER_9_544
*30438 FILLER_9_547
*30439 FILLER_9_550
*30440 FILLER_9_553
*30441 FILLER_9_556
*30442 FILLER_9_559
*30443 FILLER_9_561
*30444 FILLER_9_564
*30445 FILLER_9_567
*30446 FILLER_9_57
*30447 FILLER_9_570
*30448 FILLER_9_573
*30449 FILLER_9_576
*30450 FILLER_9_579
*30451 FILLER_9_582
*30452 FILLER_9_585
*30453 FILLER_9_588
*30454 FILLER_9_591
*30455 FILLER_9_594
*30456 FILLER_9_597
*30457 FILLER_9_6
*30458 FILLER_9_60
*30459 FILLER_9_600
*30460 FILLER_9_603
*30461 FILLER_9_606
*30462 FILLER_9_609
*30463 FILLER_9_612
*30464 FILLER_9_615
*30465 FILLER_9_617
*30466 FILLER_9_620
*30467 FILLER_9_623
*30468 FILLER_9_626
*30469 FILLER_9_629
*30470 FILLER_9_63
*30471 FILLER_9_632
*30472 FILLER_9_635
*30473 FILLER_9_638
*30474 FILLER_9_641
*30475 FILLER_9_644
*30476 FILLER_9_647
*30477 FILLER_9_650
*30478 FILLER_9_653
*30479 FILLER_9_656
*30480 FILLER_9_659
*30481 FILLER_9_66
*30482 FILLER_9_662
*30483 FILLER_9_665
*30484 FILLER_9_668
*30485 FILLER_9_671
*30486 FILLER_9_673
*30487 FILLER_9_676
*30488 FILLER_9_679
*30489 FILLER_9_682
*30490 FILLER_9_685
*30491 FILLER_9_688
*30492 FILLER_9_69
*30493 FILLER_9_691
*30494 FILLER_9_694
*30495 FILLER_9_697
*30496 FILLER_9_700
*30497 FILLER_9_703
*30498 FILLER_9_706
*30499 FILLER_9_709
*30500 FILLER_9_712
*30501 FILLER_9_715
*30502 FILLER_9_718
*30503 FILLER_9_72
*30504 FILLER_9_721
*30505 FILLER_9_724
*30506 FILLER_9_727
*30507 FILLER_9_729
*30508 FILLER_9_732
*30509 FILLER_9_735
*30510 FILLER_9_738
*30511 FILLER_9_741
*30512 FILLER_9_744
*30513 FILLER_9_747
*30514 FILLER_9_75
*30515 FILLER_9_750
*30516 FILLER_9_753
*30517 FILLER_9_756
*30518 FILLER_9_759
*30519 FILLER_9_762
*30520 FILLER_9_765
*30521 FILLER_9_768
*30522 FILLER_9_771
*30523 FILLER_9_774
*30524 FILLER_9_777
*30525 FILLER_9_78
*30526 FILLER_9_780
*30527 FILLER_9_783
*30528 FILLER_9_785
*30529 FILLER_9_788
*30530 FILLER_9_791
*30531 FILLER_9_794
*30532 FILLER_9_797
*30533 FILLER_9_800
*30534 FILLER_9_803
*30535 FILLER_9_806
*30536 FILLER_9_809
*30537 FILLER_9_81
*30538 FILLER_9_812
*30539 FILLER_9_815
*30540 FILLER_9_818
*30541 FILLER_9_821
*30542 FILLER_9_824
*30543 FILLER_9_827
*30544 FILLER_9_830
*30545 FILLER_9_833
*30546 FILLER_9_836
*30547 FILLER_9_839
*30548 FILLER_9_84
*30549 FILLER_9_841
*30550 FILLER_9_844
*30551 FILLER_9_847
*30552 FILLER_9_850
*30553 FILLER_9_853
*30554 FILLER_9_856
*30555 FILLER_9_859
*30556 FILLER_9_862
*30557 FILLER_9_865
*30558 FILLER_9_868
*30559 FILLER_9_87
*30560 FILLER_9_871
*30561 FILLER_9_874
*30562 FILLER_9_877
*30563 FILLER_9_880
*30564 FILLER_9_883
*30565 FILLER_9_886
*30566 FILLER_9_889
*30567 FILLER_9_892
*30568 FILLER_9_895
*30569 FILLER_9_897
*30570 FILLER_9_9
*30571 FILLER_9_90
*30572 FILLER_9_900
*30573 FILLER_9_903
*30574 FILLER_9_906
*30575 FILLER_9_909
*30576 FILLER_9_912
*30577 FILLER_9_915
*30578 FILLER_9_918
*30579 FILLER_9_921
*30580 FILLER_9_924
*30581 FILLER_9_927
*30582 FILLER_9_93
*30583 FILLER_9_930
*30584 FILLER_9_933
*30585 FILLER_9_936
*30586 FILLER_9_939
*30587 FILLER_9_942
*30588 FILLER_9_945
*30589 FILLER_9_948
*30590 FILLER_9_951
*30591 FILLER_9_953
*30592 FILLER_9_956
*30593 FILLER_9_959
*30594 FILLER_9_96
*30595 FILLER_9_962
*30596 FILLER_9_965
*30597 FILLER_9_968
*30598 FILLER_9_971
*30599 FILLER_9_974
*30600 FILLER_9_977
*30601 FILLER_9_980
*30602 FILLER_9_983
*30603 FILLER_9_986
*30604 FILLER_9_989
*30605 FILLER_9_99
*30606 FILLER_9_992
*30607 FILLER_9_995
*30608 FILLER_9_998
*30609 PHY_EDGE_ROW_0_Left_190
*30610 PHY_EDGE_ROW_0_Right_0
*30611 PHY_EDGE_ROW_100_1_Left_289
*30612 PHY_EDGE_ROW_100_1_Right_615
*30613 PHY_EDGE_ROW_100_2_Left_462
*30614 PHY_EDGE_ROW_100_2_Right_118
*30615 PHY_EDGE_ROW_101_1_Left_290
*30616 PHY_EDGE_ROW_101_1_Right_616
*30617 PHY_EDGE_ROW_101_2_Left_463
*30618 PHY_EDGE_ROW_101_2_Right_119
*30619 PHY_EDGE_ROW_102_1_Left_291
*30620 PHY_EDGE_ROW_102_1_Right_617
*30621 PHY_EDGE_ROW_102_2_Left_464
*30622 PHY_EDGE_ROW_102_2_Right_120
*30623 PHY_EDGE_ROW_103_1_Left_292
*30624 PHY_EDGE_ROW_103_1_Right_618
*30625 PHY_EDGE_ROW_103_2_Left_465
*30626 PHY_EDGE_ROW_103_2_Right_121
*30627 PHY_EDGE_ROW_104_1_Left_293
*30628 PHY_EDGE_ROW_104_1_Right_619
*30629 PHY_EDGE_ROW_104_2_Left_466
*30630 PHY_EDGE_ROW_104_2_Right_122
*30631 PHY_EDGE_ROW_105_1_Left_294
*30632 PHY_EDGE_ROW_105_1_Right_620
*30633 PHY_EDGE_ROW_105_2_Left_467
*30634 PHY_EDGE_ROW_105_2_Right_123
*30635 PHY_EDGE_ROW_106_1_Left_295
*30636 PHY_EDGE_ROW_106_1_Right_621
*30637 PHY_EDGE_ROW_106_2_Left_468
*30638 PHY_EDGE_ROW_106_2_Right_124
*30639 PHY_EDGE_ROW_107_1_Left_296
*30640 PHY_EDGE_ROW_107_1_Right_622
*30641 PHY_EDGE_ROW_107_2_Left_469
*30642 PHY_EDGE_ROW_107_2_Right_125
*30643 PHY_EDGE_ROW_108_1_Left_297
*30644 PHY_EDGE_ROW_108_1_Right_623
*30645 PHY_EDGE_ROW_108_2_Left_470
*30646 PHY_EDGE_ROW_108_2_Right_126
*30647 PHY_EDGE_ROW_109_1_Left_298
*30648 PHY_EDGE_ROW_109_1_Right_624
*30649 PHY_EDGE_ROW_109_2_Left_471
*30650 PHY_EDGE_ROW_109_2_Right_127
*30651 PHY_EDGE_ROW_10_Left_200
*30652 PHY_EDGE_ROW_10_Right_10
*30653 PHY_EDGE_ROW_110_1_Left_299
*30654 PHY_EDGE_ROW_110_1_Right_625
*30655 PHY_EDGE_ROW_110_2_Left_472
*30656 PHY_EDGE_ROW_110_2_Right_128
*30657 PHY_EDGE_ROW_111_1_Left_300
*30658 PHY_EDGE_ROW_111_1_Right_626
*30659 PHY_EDGE_ROW_111_2_Left_473
*30660 PHY_EDGE_ROW_111_2_Right_129
*30661 PHY_EDGE_ROW_112_1_Left_301
*30662 PHY_EDGE_ROW_112_1_Right_627
*30663 PHY_EDGE_ROW_112_2_Left_474
*30664 PHY_EDGE_ROW_112_2_Right_130
*30665 PHY_EDGE_ROW_113_1_Left_302
*30666 PHY_EDGE_ROW_113_1_Right_628
*30667 PHY_EDGE_ROW_113_2_Left_475
*30668 PHY_EDGE_ROW_113_2_Right_131
*30669 PHY_EDGE_ROW_114_1_Left_303
*30670 PHY_EDGE_ROW_114_1_Right_629
*30671 PHY_EDGE_ROW_114_2_Left_476
*30672 PHY_EDGE_ROW_114_2_Right_132
*30673 PHY_EDGE_ROW_115_1_Left_304
*30674 PHY_EDGE_ROW_115_1_Right_630
*30675 PHY_EDGE_ROW_115_2_Left_477
*30676 PHY_EDGE_ROW_115_2_Right_133
*30677 PHY_EDGE_ROW_116_1_Left_305
*30678 PHY_EDGE_ROW_116_1_Right_631
*30679 PHY_EDGE_ROW_116_2_Left_478
*30680 PHY_EDGE_ROW_116_2_Right_134
*30681 PHY_EDGE_ROW_117_1_Left_306
*30682 PHY_EDGE_ROW_117_1_Right_632
*30683 PHY_EDGE_ROW_117_2_Left_479
*30684 PHY_EDGE_ROW_117_2_Right_135
*30685 PHY_EDGE_ROW_118_1_Left_307
*30686 PHY_EDGE_ROW_118_1_Right_633
*30687 PHY_EDGE_ROW_118_2_Left_480
*30688 PHY_EDGE_ROW_118_2_Right_136
*30689 PHY_EDGE_ROW_119_1_Left_308
*30690 PHY_EDGE_ROW_119_1_Right_634
*30691 PHY_EDGE_ROW_119_2_Left_481
*30692 PHY_EDGE_ROW_119_2_Right_137
*30693 PHY_EDGE_ROW_11_Left_201
*30694 PHY_EDGE_ROW_11_Right_11
*30695 PHY_EDGE_ROW_120_1_Left_309
*30696 PHY_EDGE_ROW_120_1_Right_635
*30697 PHY_EDGE_ROW_120_2_Left_482
*30698 PHY_EDGE_ROW_120_2_Right_138
*30699 PHY_EDGE_ROW_121_1_Left_310
*30700 PHY_EDGE_ROW_121_1_Right_636
*30701 PHY_EDGE_ROW_121_2_Left_483
*30702 PHY_EDGE_ROW_121_2_Right_139
*30703 PHY_EDGE_ROW_122_1_Left_311
*30704 PHY_EDGE_ROW_122_1_Right_637
*30705 PHY_EDGE_ROW_122_2_Left_484
*30706 PHY_EDGE_ROW_122_2_Right_140
*30707 PHY_EDGE_ROW_123_1_Left_312
*30708 PHY_EDGE_ROW_123_1_Right_638
*30709 PHY_EDGE_ROW_123_2_Left_485
*30710 PHY_EDGE_ROW_123_2_Right_141
*30711 PHY_EDGE_ROW_124_1_Left_313
*30712 PHY_EDGE_ROW_124_1_Right_639
*30713 PHY_EDGE_ROW_124_2_Left_486
*30714 PHY_EDGE_ROW_124_2_Right_142
*30715 PHY_EDGE_ROW_125_1_Left_314
*30716 PHY_EDGE_ROW_125_1_Right_640
*30717 PHY_EDGE_ROW_125_2_Left_487
*30718 PHY_EDGE_ROW_125_2_Right_143
*30719 PHY_EDGE_ROW_126_1_Left_315
*30720 PHY_EDGE_ROW_126_1_Right_641
*30721 PHY_EDGE_ROW_126_2_Left_488
*30722 PHY_EDGE_ROW_126_2_Right_144
*30723 PHY_EDGE_ROW_127_1_Left_316
*30724 PHY_EDGE_ROW_127_1_Right_642
*30725 PHY_EDGE_ROW_127_2_Left_489
*30726 PHY_EDGE_ROW_127_2_Right_145
*30727 PHY_EDGE_ROW_128_1_Left_317
*30728 PHY_EDGE_ROW_128_1_Right_643
*30729 PHY_EDGE_ROW_128_2_Left_490
*30730 PHY_EDGE_ROW_128_2_Right_146
*30731 PHY_EDGE_ROW_129_1_Left_318
*30732 PHY_EDGE_ROW_129_1_Right_644
*30733 PHY_EDGE_ROW_129_2_Left_491
*30734 PHY_EDGE_ROW_129_2_Right_147
*30735 PHY_EDGE_ROW_12_Left_202
*30736 PHY_EDGE_ROW_12_Right_12
*30737 PHY_EDGE_ROW_130_1_Left_319
*30738 PHY_EDGE_ROW_130_1_Right_645
*30739 PHY_EDGE_ROW_130_2_Left_492
*30740 PHY_EDGE_ROW_130_2_Right_148
*30741 PHY_EDGE_ROW_131_1_Left_320
*30742 PHY_EDGE_ROW_131_1_Right_646
*30743 PHY_EDGE_ROW_131_2_Left_493
*30744 PHY_EDGE_ROW_131_2_Right_149
*30745 PHY_EDGE_ROW_132_1_Left_321
*30746 PHY_EDGE_ROW_132_1_Right_647
*30747 PHY_EDGE_ROW_132_2_Left_494
*30748 PHY_EDGE_ROW_132_2_Right_150
*30749 PHY_EDGE_ROW_133_1_Left_322
*30750 PHY_EDGE_ROW_133_1_Right_648
*30751 PHY_EDGE_ROW_133_2_Left_495
*30752 PHY_EDGE_ROW_133_2_Right_151
*30753 PHY_EDGE_ROW_134_1_Left_323
*30754 PHY_EDGE_ROW_134_1_Right_649
*30755 PHY_EDGE_ROW_134_2_Left_496
*30756 PHY_EDGE_ROW_134_2_Right_152
*30757 PHY_EDGE_ROW_135_1_Left_324
*30758 PHY_EDGE_ROW_135_1_Right_650
*30759 PHY_EDGE_ROW_135_2_Left_497
*30760 PHY_EDGE_ROW_135_2_Right_153
*30761 PHY_EDGE_ROW_136_1_Left_325
*30762 PHY_EDGE_ROW_136_1_Right_651
*30763 PHY_EDGE_ROW_136_2_Left_498
*30764 PHY_EDGE_ROW_136_2_Right_154
*30765 PHY_EDGE_ROW_137_1_Left_326
*30766 PHY_EDGE_ROW_137_1_Right_652
*30767 PHY_EDGE_ROW_137_2_Left_499
*30768 PHY_EDGE_ROW_137_2_Right_155
*30769 PHY_EDGE_ROW_138_1_Left_327
*30770 PHY_EDGE_ROW_138_1_Right_653
*30771 PHY_EDGE_ROW_138_2_Left_500
*30772 PHY_EDGE_ROW_138_2_Right_156
*30773 PHY_EDGE_ROW_139_1_Left_328
*30774 PHY_EDGE_ROW_139_1_Right_654
*30775 PHY_EDGE_ROW_139_2_Left_501
*30776 PHY_EDGE_ROW_139_2_Right_157
*30777 PHY_EDGE_ROW_13_Left_203
*30778 PHY_EDGE_ROW_13_Right_13
*30779 PHY_EDGE_ROW_140_1_Left_329
*30780 PHY_EDGE_ROW_140_1_Right_655
*30781 PHY_EDGE_ROW_140_2_Left_502
*30782 PHY_EDGE_ROW_140_2_Right_158
*30783 PHY_EDGE_ROW_141_1_Left_330
*30784 PHY_EDGE_ROW_141_1_Right_656
*30785 PHY_EDGE_ROW_141_2_Left_503
*30786 PHY_EDGE_ROW_141_2_Right_159
*30787 PHY_EDGE_ROW_142_1_Left_331
*30788 PHY_EDGE_ROW_142_1_Right_657
*30789 PHY_EDGE_ROW_142_2_Left_504
*30790 PHY_EDGE_ROW_142_2_Right_160
*30791 PHY_EDGE_ROW_143_1_Left_332
*30792 PHY_EDGE_ROW_143_1_Right_658
*30793 PHY_EDGE_ROW_143_2_Left_505
*30794 PHY_EDGE_ROW_143_2_Right_161
*30795 PHY_EDGE_ROW_144_1_Left_333
*30796 PHY_EDGE_ROW_144_1_Right_659
*30797 PHY_EDGE_ROW_144_2_Left_506
*30798 PHY_EDGE_ROW_144_2_Right_162
*30799 PHY_EDGE_ROW_145_1_Left_334
*30800 PHY_EDGE_ROW_145_1_Right_660
*30801 PHY_EDGE_ROW_145_2_Left_507
*30802 PHY_EDGE_ROW_145_2_Right_163
*30803 PHY_EDGE_ROW_146_1_Left_335
*30804 PHY_EDGE_ROW_146_1_Right_661
*30805 PHY_EDGE_ROW_146_2_Left_508
*30806 PHY_EDGE_ROW_146_2_Right_164
*30807 PHY_EDGE_ROW_147_1_Left_336
*30808 PHY_EDGE_ROW_147_1_Right_662
*30809 PHY_EDGE_ROW_147_2_Left_509
*30810 PHY_EDGE_ROW_147_2_Right_165
*30811 PHY_EDGE_ROW_148_1_Left_337
*30812 PHY_EDGE_ROW_148_1_Right_663
*30813 PHY_EDGE_ROW_148_2_Left_510
*30814 PHY_EDGE_ROW_148_2_Right_166
*30815 PHY_EDGE_ROW_149_1_Left_338
*30816 PHY_EDGE_ROW_149_1_Right_664
*30817 PHY_EDGE_ROW_149_2_Left_511
*30818 PHY_EDGE_ROW_149_2_Right_167
*30819 PHY_EDGE_ROW_14_Left_204
*30820 PHY_EDGE_ROW_14_Right_14
*30821 PHY_EDGE_ROW_150_1_Left_339
*30822 PHY_EDGE_ROW_150_1_Right_665
*30823 PHY_EDGE_ROW_150_2_Left_512
*30824 PHY_EDGE_ROW_150_2_Right_168
*30825 PHY_EDGE_ROW_151_1_Left_340
*30826 PHY_EDGE_ROW_151_1_Right_666
*30827 PHY_EDGE_ROW_151_2_Left_513
*30828 PHY_EDGE_ROW_151_2_Right_169
*30829 PHY_EDGE_ROW_152_1_Left_341
*30830 PHY_EDGE_ROW_152_1_Right_667
*30831 PHY_EDGE_ROW_152_2_Left_514
*30832 PHY_EDGE_ROW_152_2_Right_170
*30833 PHY_EDGE_ROW_153_1_Left_342
*30834 PHY_EDGE_ROW_153_1_Right_668
*30835 PHY_EDGE_ROW_153_2_Left_515
*30836 PHY_EDGE_ROW_153_2_Right_171
*30837 PHY_EDGE_ROW_154_1_Left_343
*30838 PHY_EDGE_ROW_154_1_Right_669
*30839 PHY_EDGE_ROW_154_2_Left_516
*30840 PHY_EDGE_ROW_154_2_Right_172
*30841 PHY_EDGE_ROW_155_1_Left_344
*30842 PHY_EDGE_ROW_155_1_Right_670
*30843 PHY_EDGE_ROW_155_2_Left_517
*30844 PHY_EDGE_ROW_155_2_Right_173
*30845 PHY_EDGE_ROW_156_1_Left_345
*30846 PHY_EDGE_ROW_156_1_Right_671
*30847 PHY_EDGE_ROW_156_2_Left_518
*30848 PHY_EDGE_ROW_156_2_Right_174
*30849 PHY_EDGE_ROW_157_1_Left_346
*30850 PHY_EDGE_ROW_157_1_Right_672
*30851 PHY_EDGE_ROW_157_2_Left_519
*30852 PHY_EDGE_ROW_157_2_Right_175
*30853 PHY_EDGE_ROW_158_1_Left_347
*30854 PHY_EDGE_ROW_158_1_Right_673
*30855 PHY_EDGE_ROW_158_2_Left_520
*30856 PHY_EDGE_ROW_158_2_Right_176
*30857 PHY_EDGE_ROW_159_1_Left_348
*30858 PHY_EDGE_ROW_159_1_Right_674
*30859 PHY_EDGE_ROW_159_2_Left_521
*30860 PHY_EDGE_ROW_159_2_Right_177
*30861 PHY_EDGE_ROW_15_Left_205
*30862 PHY_EDGE_ROW_15_Right_15
*30863 PHY_EDGE_ROW_160_1_Left_349
*30864 PHY_EDGE_ROW_160_1_Right_675
*30865 PHY_EDGE_ROW_160_2_Left_522
*30866 PHY_EDGE_ROW_160_2_Right_178
*30867 PHY_EDGE_ROW_161_1_Left_350
*30868 PHY_EDGE_ROW_161_1_Right_676
*30869 PHY_EDGE_ROW_161_2_Left_523
*30870 PHY_EDGE_ROW_161_2_Right_179
*30871 PHY_EDGE_ROW_162_1_Left_351
*30872 PHY_EDGE_ROW_162_1_Right_677
*30873 PHY_EDGE_ROW_162_2_Left_524
*30874 PHY_EDGE_ROW_162_2_Right_180
*30875 PHY_EDGE_ROW_163_1_Left_352
*30876 PHY_EDGE_ROW_163_1_Right_678
*30877 PHY_EDGE_ROW_163_2_Left_525
*30878 PHY_EDGE_ROW_163_2_Right_181
*30879 PHY_EDGE_ROW_164_1_Left_353
*30880 PHY_EDGE_ROW_164_1_Right_679
*30881 PHY_EDGE_ROW_164_2_Left_526
*30882 PHY_EDGE_ROW_164_2_Right_182
*30883 PHY_EDGE_ROW_165_1_Left_354
*30884 PHY_EDGE_ROW_165_1_Right_680
*30885 PHY_EDGE_ROW_165_2_Left_527
*30886 PHY_EDGE_ROW_165_2_Right_183
*30887 PHY_EDGE_ROW_166_1_Left_355
*30888 PHY_EDGE_ROW_166_1_Right_681
*30889 PHY_EDGE_ROW_166_2_Left_528
*30890 PHY_EDGE_ROW_166_2_Right_184
*30891 PHY_EDGE_ROW_167_1_Left_356
*30892 PHY_EDGE_ROW_167_1_Right_682
*30893 PHY_EDGE_ROW_167_2_Left_529
*30894 PHY_EDGE_ROW_167_2_Right_185
*30895 PHY_EDGE_ROW_168_1_Left_357
*30896 PHY_EDGE_ROW_168_1_Right_683
*30897 PHY_EDGE_ROW_168_2_Left_530
*30898 PHY_EDGE_ROW_168_2_Right_186
*30899 PHY_EDGE_ROW_169_1_Left_358
*30900 PHY_EDGE_ROW_169_1_Right_684
*30901 PHY_EDGE_ROW_169_2_Left_531
*30902 PHY_EDGE_ROW_169_2_Right_187
*30903 PHY_EDGE_ROW_16_Left_206
*30904 PHY_EDGE_ROW_16_Right_16
*30905 PHY_EDGE_ROW_170_1_Left_359
*30906 PHY_EDGE_ROW_170_1_Right_685
*30907 PHY_EDGE_ROW_170_2_Left_532
*30908 PHY_EDGE_ROW_170_2_Right_188
*30909 PHY_EDGE_ROW_171_1_Left_360
*30910 PHY_EDGE_ROW_171_1_Right_686
*30911 PHY_EDGE_ROW_171_2_Left_533
*30912 PHY_EDGE_ROW_171_2_Right_189
*30913 PHY_EDGE_ROW_172_Left_361
*30914 PHY_EDGE_ROW_172_Right_18
*30915 PHY_EDGE_ROW_173_Left_362
*30916 PHY_EDGE_ROW_173_Right_19
*30917 PHY_EDGE_ROW_174_Left_363
*30918 PHY_EDGE_ROW_174_Right_20
*30919 PHY_EDGE_ROW_175_Left_364
*30920 PHY_EDGE_ROW_175_Right_21
*30921 PHY_EDGE_ROW_176_Left_365
*30922 PHY_EDGE_ROW_176_Right_22
*30923 PHY_EDGE_ROW_177_Left_366
*30924 PHY_EDGE_ROW_177_Right_23
*30925 PHY_EDGE_ROW_178_Left_367
*30926 PHY_EDGE_ROW_178_Right_24
*30927 PHY_EDGE_ROW_179_Left_368
*30928 PHY_EDGE_ROW_179_Right_25
*30929 PHY_EDGE_ROW_17_Left_207
*30930 PHY_EDGE_ROW_17_Right_17
*30931 PHY_EDGE_ROW_180_Left_369
*30932 PHY_EDGE_ROW_180_Right_26
*30933 PHY_EDGE_ROW_181_Left_370
*30934 PHY_EDGE_ROW_181_Right_27
*30935 PHY_EDGE_ROW_182_Left_371
*30936 PHY_EDGE_ROW_182_Right_28
*30937 PHY_EDGE_ROW_183_Left_372
*30938 PHY_EDGE_ROW_183_Right_29
*30939 PHY_EDGE_ROW_184_Left_373
*30940 PHY_EDGE_ROW_184_Right_30
*30941 PHY_EDGE_ROW_185_Left_374
*30942 PHY_EDGE_ROW_185_Right_31
*30943 PHY_EDGE_ROW_186_Left_375
*30944 PHY_EDGE_ROW_186_Right_32
*30945 PHY_EDGE_ROW_187_Left_376
*30946 PHY_EDGE_ROW_187_Right_33
*30947 PHY_EDGE_ROW_188_Left_377
*30948 PHY_EDGE_ROW_188_Right_34
*30949 PHY_EDGE_ROW_189_Left_378
*30950 PHY_EDGE_ROW_189_Right_35
*30951 PHY_EDGE_ROW_18_1_Left_379
*30952 PHY_EDGE_ROW_18_1_Right_687
*30953 PHY_EDGE_ROW_18_2_Left_380
*30954 PHY_EDGE_ROW_18_2_Right_36
*30955 PHY_EDGE_ROW_19_1_Left_208
*30956 PHY_EDGE_ROW_19_1_Right_534
*30957 PHY_EDGE_ROW_19_2_Left_381
*30958 PHY_EDGE_ROW_19_2_Right_37
*30959 PHY_EDGE_ROW_1_Left_191
*30960 PHY_EDGE_ROW_1_Right_1
*30961 PHY_EDGE_ROW_20_1_Left_209
*30962 PHY_EDGE_ROW_20_1_Right_535
*30963 PHY_EDGE_ROW_20_2_Left_382
*30964 PHY_EDGE_ROW_20_2_Right_38
*30965 PHY_EDGE_ROW_21_1_Left_210
*30966 PHY_EDGE_ROW_21_1_Right_536
*30967 PHY_EDGE_ROW_21_2_Left_383
*30968 PHY_EDGE_ROW_21_2_Right_39
*30969 PHY_EDGE_ROW_22_1_Left_211
*30970 PHY_EDGE_ROW_22_1_Right_537
*30971 PHY_EDGE_ROW_22_2_Left_384
*30972 PHY_EDGE_ROW_22_2_Right_40
*30973 PHY_EDGE_ROW_23_1_Left_212
*30974 PHY_EDGE_ROW_23_1_Right_538
*30975 PHY_EDGE_ROW_23_2_Left_385
*30976 PHY_EDGE_ROW_23_2_Right_41
*30977 PHY_EDGE_ROW_24_1_Left_213
*30978 PHY_EDGE_ROW_24_1_Right_539
*30979 PHY_EDGE_ROW_24_2_Left_386
*30980 PHY_EDGE_ROW_24_2_Right_42
*30981 PHY_EDGE_ROW_25_1_Left_214
*30982 PHY_EDGE_ROW_25_1_Right_540
*30983 PHY_EDGE_ROW_25_2_Left_387
*30984 PHY_EDGE_ROW_25_2_Right_43
*30985 PHY_EDGE_ROW_26_1_Left_215
*30986 PHY_EDGE_ROW_26_1_Right_541
*30987 PHY_EDGE_ROW_26_2_Left_388
*30988 PHY_EDGE_ROW_26_2_Right_44
*30989 PHY_EDGE_ROW_27_1_Left_216
*30990 PHY_EDGE_ROW_27_1_Right_542
*30991 PHY_EDGE_ROW_27_2_Left_389
*30992 PHY_EDGE_ROW_27_2_Right_45
*30993 PHY_EDGE_ROW_28_1_Left_217
*30994 PHY_EDGE_ROW_28_1_Right_543
*30995 PHY_EDGE_ROW_28_2_Left_390
*30996 PHY_EDGE_ROW_28_2_Right_46
*30997 PHY_EDGE_ROW_29_1_Left_218
*30998 PHY_EDGE_ROW_29_1_Right_544
*30999 PHY_EDGE_ROW_29_2_Left_391
*31000 PHY_EDGE_ROW_29_2_Right_47
*31001 PHY_EDGE_ROW_2_Left_192
*31002 PHY_EDGE_ROW_2_Right_2
*31003 PHY_EDGE_ROW_30_1_Left_219
*31004 PHY_EDGE_ROW_30_1_Right_545
*31005 PHY_EDGE_ROW_30_2_Left_392
*31006 PHY_EDGE_ROW_30_2_Right_48
*31007 PHY_EDGE_ROW_31_1_Left_220
*31008 PHY_EDGE_ROW_31_1_Right_546
*31009 PHY_EDGE_ROW_31_2_Left_393
*31010 PHY_EDGE_ROW_31_2_Right_49
*31011 PHY_EDGE_ROW_32_1_Left_221
*31012 PHY_EDGE_ROW_32_1_Right_547
*31013 PHY_EDGE_ROW_32_2_Left_394
*31014 PHY_EDGE_ROW_32_2_Right_50
*31015 PHY_EDGE_ROW_33_1_Left_222
*31016 PHY_EDGE_ROW_33_1_Right_548
*31017 PHY_EDGE_ROW_33_2_Left_395
*31018 PHY_EDGE_ROW_33_2_Right_51
*31019 PHY_EDGE_ROW_34_1_Left_223
*31020 PHY_EDGE_ROW_34_1_Right_549
*31021 PHY_EDGE_ROW_34_2_Left_396
*31022 PHY_EDGE_ROW_34_2_Right_52
*31023 PHY_EDGE_ROW_35_1_Left_224
*31024 PHY_EDGE_ROW_35_1_Right_550
*31025 PHY_EDGE_ROW_35_2_Left_397
*31026 PHY_EDGE_ROW_35_2_Right_53
*31027 PHY_EDGE_ROW_36_1_Left_225
*31028 PHY_EDGE_ROW_36_1_Right_551
*31029 PHY_EDGE_ROW_36_2_Left_398
*31030 PHY_EDGE_ROW_36_2_Right_54
*31031 PHY_EDGE_ROW_37_1_Left_226
*31032 PHY_EDGE_ROW_37_1_Right_552
*31033 PHY_EDGE_ROW_37_2_Left_399
*31034 PHY_EDGE_ROW_37_2_Right_55
*31035 PHY_EDGE_ROW_38_1_Left_227
*31036 PHY_EDGE_ROW_38_1_Right_553
*31037 PHY_EDGE_ROW_38_2_Left_400
*31038 PHY_EDGE_ROW_38_2_Right_56
*31039 PHY_EDGE_ROW_39_1_Left_228
*31040 PHY_EDGE_ROW_39_1_Right_554
*31041 PHY_EDGE_ROW_39_2_Left_401
*31042 PHY_EDGE_ROW_39_2_Right_57
*31043 PHY_EDGE_ROW_3_Left_193
*31044 PHY_EDGE_ROW_3_Right_3
*31045 PHY_EDGE_ROW_40_1_Left_229
*31046 PHY_EDGE_ROW_40_1_Right_555
*31047 PHY_EDGE_ROW_40_2_Left_402
*31048 PHY_EDGE_ROW_40_2_Right_58
*31049 PHY_EDGE_ROW_41_1_Left_230
*31050 PHY_EDGE_ROW_41_1_Right_556
*31051 PHY_EDGE_ROW_41_2_Left_403
*31052 PHY_EDGE_ROW_41_2_Right_59
*31053 PHY_EDGE_ROW_42_1_Left_231
*31054 PHY_EDGE_ROW_42_1_Right_557
*31055 PHY_EDGE_ROW_42_2_Left_404
*31056 PHY_EDGE_ROW_42_2_Right_60
*31057 PHY_EDGE_ROW_43_1_Left_232
*31058 PHY_EDGE_ROW_43_1_Right_558
*31059 PHY_EDGE_ROW_43_2_Left_405
*31060 PHY_EDGE_ROW_43_2_Right_61
*31061 PHY_EDGE_ROW_44_1_Left_233
*31062 PHY_EDGE_ROW_44_1_Right_559
*31063 PHY_EDGE_ROW_44_2_Left_406
*31064 PHY_EDGE_ROW_44_2_Right_62
*31065 PHY_EDGE_ROW_45_1_Left_234
*31066 PHY_EDGE_ROW_45_1_Right_560
*31067 PHY_EDGE_ROW_45_2_Left_407
*31068 PHY_EDGE_ROW_45_2_Right_63
*31069 PHY_EDGE_ROW_46_1_Left_235
*31070 PHY_EDGE_ROW_46_1_Right_561
*31071 PHY_EDGE_ROW_46_2_Left_408
*31072 PHY_EDGE_ROW_46_2_Right_64
*31073 PHY_EDGE_ROW_47_1_Left_236
*31074 PHY_EDGE_ROW_47_1_Right_562
*31075 PHY_EDGE_ROW_47_2_Left_409
*31076 PHY_EDGE_ROW_47_2_Right_65
*31077 PHY_EDGE_ROW_48_1_Left_237
*31078 PHY_EDGE_ROW_48_1_Right_563
*31079 PHY_EDGE_ROW_48_2_Left_410
*31080 PHY_EDGE_ROW_48_2_Right_66
*31081 PHY_EDGE_ROW_49_1_Left_238
*31082 PHY_EDGE_ROW_49_1_Right_564
*31083 PHY_EDGE_ROW_49_2_Left_411
*31084 PHY_EDGE_ROW_49_2_Right_67
*31085 PHY_EDGE_ROW_4_Left_194
*31086 PHY_EDGE_ROW_4_Right_4
*31087 PHY_EDGE_ROW_50_1_Left_239
*31088 PHY_EDGE_ROW_50_1_Right_565
*31089 PHY_EDGE_ROW_50_2_Left_412
*31090 PHY_EDGE_ROW_50_2_Right_68
*31091 PHY_EDGE_ROW_51_1_Left_240
*31092 PHY_EDGE_ROW_51_1_Right_566
*31093 PHY_EDGE_ROW_51_2_Left_413
*31094 PHY_EDGE_ROW_51_2_Right_69
*31095 PHY_EDGE_ROW_52_1_Left_241
*31096 PHY_EDGE_ROW_52_1_Right_567
*31097 PHY_EDGE_ROW_52_2_Left_414
*31098 PHY_EDGE_ROW_52_2_Right_70
*31099 PHY_EDGE_ROW_53_1_Left_242
*31100 PHY_EDGE_ROW_53_1_Right_568
*31101 PHY_EDGE_ROW_53_2_Left_415
*31102 PHY_EDGE_ROW_53_2_Right_71
*31103 PHY_EDGE_ROW_54_1_Left_243
*31104 PHY_EDGE_ROW_54_1_Right_569
*31105 PHY_EDGE_ROW_54_2_Left_416
*31106 PHY_EDGE_ROW_54_2_Right_72
*31107 PHY_EDGE_ROW_55_1_Left_244
*31108 PHY_EDGE_ROW_55_1_Right_570
*31109 PHY_EDGE_ROW_55_2_Left_417
*31110 PHY_EDGE_ROW_55_2_Right_73
*31111 PHY_EDGE_ROW_56_1_Left_245
*31112 PHY_EDGE_ROW_56_1_Right_571
*31113 PHY_EDGE_ROW_56_2_Left_418
*31114 PHY_EDGE_ROW_56_2_Right_74
*31115 PHY_EDGE_ROW_57_1_Left_246
*31116 PHY_EDGE_ROW_57_1_Right_572
*31117 PHY_EDGE_ROW_57_2_Left_419
*31118 PHY_EDGE_ROW_57_2_Right_75
*31119 PHY_EDGE_ROW_58_1_Left_247
*31120 PHY_EDGE_ROW_58_1_Right_573
*31121 PHY_EDGE_ROW_58_2_Left_420
*31122 PHY_EDGE_ROW_58_2_Right_76
*31123 PHY_EDGE_ROW_59_1_Left_248
*31124 PHY_EDGE_ROW_59_1_Right_574
*31125 PHY_EDGE_ROW_59_2_Left_421
*31126 PHY_EDGE_ROW_59_2_Right_77
*31127 PHY_EDGE_ROW_5_Left_195
*31128 PHY_EDGE_ROW_5_Right_5
*31129 PHY_EDGE_ROW_60_1_Left_249
*31130 PHY_EDGE_ROW_60_1_Right_575
*31131 PHY_EDGE_ROW_60_2_Left_422
*31132 PHY_EDGE_ROW_60_2_Right_78
*31133 PHY_EDGE_ROW_61_1_Left_250
*31134 PHY_EDGE_ROW_61_1_Right_576
*31135 PHY_EDGE_ROW_61_2_Left_423
*31136 PHY_EDGE_ROW_61_2_Right_79
*31137 PHY_EDGE_ROW_62_1_Left_251
*31138 PHY_EDGE_ROW_62_1_Right_577
*31139 PHY_EDGE_ROW_62_2_Left_424
*31140 PHY_EDGE_ROW_62_2_Right_80
*31141 PHY_EDGE_ROW_63_1_Left_252
*31142 PHY_EDGE_ROW_63_1_Right_578
*31143 PHY_EDGE_ROW_63_2_Left_425
*31144 PHY_EDGE_ROW_63_2_Right_81
*31145 PHY_EDGE_ROW_64_1_Left_253
*31146 PHY_EDGE_ROW_64_1_Right_579
*31147 PHY_EDGE_ROW_64_2_Left_426
*31148 PHY_EDGE_ROW_64_2_Right_82
*31149 PHY_EDGE_ROW_65_1_Left_254
*31150 PHY_EDGE_ROW_65_1_Right_580
*31151 PHY_EDGE_ROW_65_2_Left_427
*31152 PHY_EDGE_ROW_65_2_Right_83
*31153 PHY_EDGE_ROW_66_1_Left_255
*31154 PHY_EDGE_ROW_66_1_Right_581
*31155 PHY_EDGE_ROW_66_2_Left_428
*31156 PHY_EDGE_ROW_66_2_Right_84
*31157 PHY_EDGE_ROW_67_1_Left_256
*31158 PHY_EDGE_ROW_67_1_Right_582
*31159 PHY_EDGE_ROW_67_2_Left_429
*31160 PHY_EDGE_ROW_67_2_Right_85
*31161 PHY_EDGE_ROW_68_1_Left_257
*31162 PHY_EDGE_ROW_68_1_Right_583
*31163 PHY_EDGE_ROW_68_2_Left_430
*31164 PHY_EDGE_ROW_68_2_Right_86
*31165 PHY_EDGE_ROW_69_1_Left_258
*31166 PHY_EDGE_ROW_69_1_Right_584
*31167 PHY_EDGE_ROW_69_2_Left_431
*31168 PHY_EDGE_ROW_69_2_Right_87
*31169 PHY_EDGE_ROW_6_Left_196
*31170 PHY_EDGE_ROW_6_Right_6
*31171 PHY_EDGE_ROW_70_1_Left_259
*31172 PHY_EDGE_ROW_70_1_Right_585
*31173 PHY_EDGE_ROW_70_2_Left_432
*31174 PHY_EDGE_ROW_70_2_Right_88
*31175 PHY_EDGE_ROW_71_1_Left_260
*31176 PHY_EDGE_ROW_71_1_Right_586
*31177 PHY_EDGE_ROW_71_2_Left_433
*31178 PHY_EDGE_ROW_71_2_Right_89
*31179 PHY_EDGE_ROW_72_1_Left_261
*31180 PHY_EDGE_ROW_72_1_Right_587
*31181 PHY_EDGE_ROW_72_2_Left_434
*31182 PHY_EDGE_ROW_72_2_Right_90
*31183 PHY_EDGE_ROW_73_1_Left_262
*31184 PHY_EDGE_ROW_73_1_Right_588
*31185 PHY_EDGE_ROW_73_2_Left_435
*31186 PHY_EDGE_ROW_73_2_Right_91
*31187 PHY_EDGE_ROW_74_1_Left_263
*31188 PHY_EDGE_ROW_74_1_Right_589
*31189 PHY_EDGE_ROW_74_2_Left_436
*31190 PHY_EDGE_ROW_74_2_Right_92
*31191 PHY_EDGE_ROW_75_1_Left_264
*31192 PHY_EDGE_ROW_75_1_Right_590
*31193 PHY_EDGE_ROW_75_2_Left_437
*31194 PHY_EDGE_ROW_75_2_Right_93
*31195 PHY_EDGE_ROW_76_1_Left_265
*31196 PHY_EDGE_ROW_76_1_Right_591
*31197 PHY_EDGE_ROW_76_2_Left_438
*31198 PHY_EDGE_ROW_76_2_Right_94
*31199 PHY_EDGE_ROW_77_1_Left_266
*31200 PHY_EDGE_ROW_77_1_Right_592
*31201 PHY_EDGE_ROW_77_2_Left_439
*31202 PHY_EDGE_ROW_77_2_Right_95
*31203 PHY_EDGE_ROW_78_1_Left_267
*31204 PHY_EDGE_ROW_78_1_Right_593
*31205 PHY_EDGE_ROW_78_2_Left_440
*31206 PHY_EDGE_ROW_78_2_Right_96
*31207 PHY_EDGE_ROW_79_1_Left_268
*31208 PHY_EDGE_ROW_79_1_Right_594
*31209 PHY_EDGE_ROW_79_2_Left_441
*31210 PHY_EDGE_ROW_79_2_Right_97
*31211 PHY_EDGE_ROW_7_Left_197
*31212 PHY_EDGE_ROW_7_Right_7
*31213 PHY_EDGE_ROW_80_1_Left_269
*31214 PHY_EDGE_ROW_80_1_Right_595
*31215 PHY_EDGE_ROW_80_2_Left_442
*31216 PHY_EDGE_ROW_80_2_Right_98
*31217 PHY_EDGE_ROW_81_1_Left_270
*31218 PHY_EDGE_ROW_81_1_Right_596
*31219 PHY_EDGE_ROW_81_2_Left_443
*31220 PHY_EDGE_ROW_81_2_Right_99
*31221 PHY_EDGE_ROW_82_1_Left_271
*31222 PHY_EDGE_ROW_82_1_Right_597
*31223 PHY_EDGE_ROW_82_2_Left_444
*31224 PHY_EDGE_ROW_82_2_Right_100
*31225 PHY_EDGE_ROW_83_1_Left_272
*31226 PHY_EDGE_ROW_83_1_Right_598
*31227 PHY_EDGE_ROW_83_2_Left_445
*31228 PHY_EDGE_ROW_83_2_Right_101
*31229 PHY_EDGE_ROW_84_1_Left_273
*31230 PHY_EDGE_ROW_84_1_Right_599
*31231 PHY_EDGE_ROW_84_2_Left_446
*31232 PHY_EDGE_ROW_84_2_Right_102
*31233 PHY_EDGE_ROW_85_1_Left_274
*31234 PHY_EDGE_ROW_85_1_Right_600
*31235 PHY_EDGE_ROW_85_2_Left_447
*31236 PHY_EDGE_ROW_85_2_Right_103
*31237 PHY_EDGE_ROW_86_1_Left_275
*31238 PHY_EDGE_ROW_86_1_Right_601
*31239 PHY_EDGE_ROW_86_2_Left_448
*31240 PHY_EDGE_ROW_86_2_Right_104
*31241 PHY_EDGE_ROW_87_1_Left_276
*31242 PHY_EDGE_ROW_87_1_Right_602
*31243 PHY_EDGE_ROW_87_2_Left_449
*31244 PHY_EDGE_ROW_87_2_Right_105
*31245 PHY_EDGE_ROW_88_1_Left_277
*31246 PHY_EDGE_ROW_88_1_Right_603
*31247 PHY_EDGE_ROW_88_2_Left_450
*31248 PHY_EDGE_ROW_88_2_Right_106
*31249 PHY_EDGE_ROW_89_1_Left_278
*31250 PHY_EDGE_ROW_89_1_Right_604
*31251 PHY_EDGE_ROW_89_2_Left_451
*31252 PHY_EDGE_ROW_89_2_Right_107
*31253 PHY_EDGE_ROW_8_Left_198
*31254 PHY_EDGE_ROW_8_Right_8
*31255 PHY_EDGE_ROW_90_1_Left_279
*31256 PHY_EDGE_ROW_90_1_Right_605
*31257 PHY_EDGE_ROW_90_2_Left_452
*31258 PHY_EDGE_ROW_90_2_Right_108
*31259 PHY_EDGE_ROW_91_1_Left_280
*31260 PHY_EDGE_ROW_91_1_Right_606
*31261 PHY_EDGE_ROW_91_2_Left_453
*31262 PHY_EDGE_ROW_91_2_Right_109
*31263 PHY_EDGE_ROW_92_1_Left_281
*31264 PHY_EDGE_ROW_92_1_Right_607
*31265 PHY_EDGE_ROW_92_2_Left_454
*31266 PHY_EDGE_ROW_92_2_Right_110
*31267 PHY_EDGE_ROW_93_1_Left_282
*31268 PHY_EDGE_ROW_93_1_Right_608
*31269 PHY_EDGE_ROW_93_2_Left_455
*31270 PHY_EDGE_ROW_93_2_Right_111
*31271 PHY_EDGE_ROW_94_1_Left_283
*31272 PHY_EDGE_ROW_94_1_Right_609
*31273 PHY_EDGE_ROW_94_2_Left_456
*31274 PHY_EDGE_ROW_94_2_Right_112
*31275 PHY_EDGE_ROW_95_1_Left_284
*31276 PHY_EDGE_ROW_95_1_Right_610
*31277 PHY_EDGE_ROW_95_2_Left_457
*31278 PHY_EDGE_ROW_95_2_Right_113
*31279 PHY_EDGE_ROW_96_1_Left_285
*31280 PHY_EDGE_ROW_96_1_Right_611
*31281 PHY_EDGE_ROW_96_2_Left_458
*31282 PHY_EDGE_ROW_96_2_Right_114
*31283 PHY_EDGE_ROW_97_1_Left_286
*31284 PHY_EDGE_ROW_97_1_Right_612
*31285 PHY_EDGE_ROW_97_2_Left_459
*31286 PHY_EDGE_ROW_97_2_Right_115
*31287 PHY_EDGE_ROW_98_1_Left_287
*31288 PHY_EDGE_ROW_98_1_Right_613
*31289 PHY_EDGE_ROW_98_2_Left_460
*31290 PHY_EDGE_ROW_98_2_Right_116
*31291 PHY_EDGE_ROW_99_1_Left_288
*31292 PHY_EDGE_ROW_99_1_Right_614
*31293 PHY_EDGE_ROW_99_2_Left_461
*31294 PHY_EDGE_ROW_99_2_Right_117
*31295 PHY_EDGE_ROW_9_Left_199
*31296 PHY_EDGE_ROW_9_Right_9
*31297 TAP_TAPCELL_ROW_0_688
*31298 TAP_TAPCELL_ROW_0_689
*31299 TAP_TAPCELL_ROW_0_690
*31300 TAP_TAPCELL_ROW_0_691
*31301 TAP_TAPCELL_ROW_0_692
*31302 TAP_TAPCELL_ROW_0_693
*31303 TAP_TAPCELL_ROW_0_694
*31304 TAP_TAPCELL_ROW_0_695
*31305 TAP_TAPCELL_ROW_0_696
*31306 TAP_TAPCELL_ROW_0_697
*31307 TAP_TAPCELL_ROW_0_698
*31308 TAP_TAPCELL_ROW_0_699
*31309 TAP_TAPCELL_ROW_0_700
*31310 TAP_TAPCELL_ROW_0_701
*31311 TAP_TAPCELL_ROW_0_702
*31312 TAP_TAPCELL_ROW_0_703
*31313 TAP_TAPCELL_ROW_0_704
*31314 TAP_TAPCELL_ROW_0_705
*31315 TAP_TAPCELL_ROW_0_706
*31316 TAP_TAPCELL_ROW_0_707
*31317 TAP_TAPCELL_ROW_0_708
*31318 TAP_TAPCELL_ROW_0_709
*31319 TAP_TAPCELL_ROW_0_710
*31320 TAP_TAPCELL_ROW_0_711
*31321 TAP_TAPCELL_ROW_0_712
*31322 TAP_TAPCELL_ROW_0_713
*31323 TAP_TAPCELL_ROW_0_714
*31324 TAP_TAPCELL_ROW_0_715
*31325 TAP_TAPCELL_ROW_0_716
*31326 TAP_TAPCELL_ROW_0_717
*31327 TAP_TAPCELL_ROW_0_718
*31328 TAP_TAPCELL_ROW_0_719
*31329 TAP_TAPCELL_ROW_0_720
*31330 TAP_TAPCELL_ROW_0_721
*31331 TAP_TAPCELL_ROW_0_722
*31332 TAP_TAPCELL_ROW_0_723
*31333 TAP_TAPCELL_ROW_0_724
*31334 TAP_TAPCELL_ROW_0_725
*31335 TAP_TAPCELL_ROW_0_726
*31336 TAP_TAPCELL_ROW_0_727
*31337 TAP_TAPCELL_ROW_0_728
*31338 TAP_TAPCELL_ROW_0_729
*31339 TAP_TAPCELL_ROW_0_730
*31340 TAP_TAPCELL_ROW_0_731
*31341 TAP_TAPCELL_ROW_0_732
*31342 TAP_TAPCELL_ROW_0_733
*31343 TAP_TAPCELL_ROW_0_734
*31344 TAP_TAPCELL_ROW_0_735
*31345 TAP_TAPCELL_ROW_100_1_1330
*31346 TAP_TAPCELL_ROW_100_1_1331
*31347 TAP_TAPCELL_ROW_100_2_2161
*31348 TAP_TAPCELL_ROW_100_2_2162
*31349 TAP_TAPCELL_ROW_100_2_2163
*31350 TAP_TAPCELL_ROW_101_1_1332
*31351 TAP_TAPCELL_ROW_101_1_1333
*31352 TAP_TAPCELL_ROW_101_2_2164
*31353 TAP_TAPCELL_ROW_101_2_2165
*31354 TAP_TAPCELL_ROW_102_1_1334
*31355 TAP_TAPCELL_ROW_102_1_1335
*31356 TAP_TAPCELL_ROW_102_2_2166
*31357 TAP_TAPCELL_ROW_102_2_2167
*31358 TAP_TAPCELL_ROW_102_2_2168
*31359 TAP_TAPCELL_ROW_103_1_1336
*31360 TAP_TAPCELL_ROW_103_1_1337
*31361 TAP_TAPCELL_ROW_103_2_2169
*31362 TAP_TAPCELL_ROW_103_2_2170
*31363 TAP_TAPCELL_ROW_104_1_1338
*31364 TAP_TAPCELL_ROW_104_1_1339
*31365 TAP_TAPCELL_ROW_104_2_2171
*31366 TAP_TAPCELL_ROW_104_2_2172
*31367 TAP_TAPCELL_ROW_104_2_2173
*31368 TAP_TAPCELL_ROW_105_1_1340
*31369 TAP_TAPCELL_ROW_105_1_1341
*31370 TAP_TAPCELL_ROW_105_2_2174
*31371 TAP_TAPCELL_ROW_105_2_2175
*31372 TAP_TAPCELL_ROW_106_1_1342
*31373 TAP_TAPCELL_ROW_106_1_1343
*31374 TAP_TAPCELL_ROW_106_2_2176
*31375 TAP_TAPCELL_ROW_106_2_2177
*31376 TAP_TAPCELL_ROW_106_2_2178
*31377 TAP_TAPCELL_ROW_107_1_1344
*31378 TAP_TAPCELL_ROW_107_1_1345
*31379 TAP_TAPCELL_ROW_107_2_2179
*31380 TAP_TAPCELL_ROW_107_2_2180
*31381 TAP_TAPCELL_ROW_108_1_1346
*31382 TAP_TAPCELL_ROW_108_1_1347
*31383 TAP_TAPCELL_ROW_108_2_2181
*31384 TAP_TAPCELL_ROW_108_2_2182
*31385 TAP_TAPCELL_ROW_108_2_2183
*31386 TAP_TAPCELL_ROW_109_1_1348
*31387 TAP_TAPCELL_ROW_109_1_1349
*31388 TAP_TAPCELL_ROW_109_2_2184
*31389 TAP_TAPCELL_ROW_109_2_2185
*31390 TAP_TAPCELL_ROW_10_952
*31391 TAP_TAPCELL_ROW_10_953
*31392 TAP_TAPCELL_ROW_10_954
*31393 TAP_TAPCELL_ROW_10_955
*31394 TAP_TAPCELL_ROW_10_956
*31395 TAP_TAPCELL_ROW_10_957
*31396 TAP_TAPCELL_ROW_10_958
*31397 TAP_TAPCELL_ROW_10_959
*31398 TAP_TAPCELL_ROW_10_960
*31399 TAP_TAPCELL_ROW_10_961
*31400 TAP_TAPCELL_ROW_10_962
*31401 TAP_TAPCELL_ROW_10_963
*31402 TAP_TAPCELL_ROW_10_964
*31403 TAP_TAPCELL_ROW_10_965
*31404 TAP_TAPCELL_ROW_10_966
*31405 TAP_TAPCELL_ROW_10_967
*31406 TAP_TAPCELL_ROW_10_968
*31407 TAP_TAPCELL_ROW_10_969
*31408 TAP_TAPCELL_ROW_10_970
*31409 TAP_TAPCELL_ROW_10_971
*31410 TAP_TAPCELL_ROW_10_972
*31411 TAP_TAPCELL_ROW_10_973
*31412 TAP_TAPCELL_ROW_10_974
*31413 TAP_TAPCELL_ROW_10_975
*31414 TAP_TAPCELL_ROW_110_1_1350
*31415 TAP_TAPCELL_ROW_110_1_1351
*31416 TAP_TAPCELL_ROW_110_2_2186
*31417 TAP_TAPCELL_ROW_110_2_2187
*31418 TAP_TAPCELL_ROW_110_2_2188
*31419 TAP_TAPCELL_ROW_111_1_1352
*31420 TAP_TAPCELL_ROW_111_1_1353
*31421 TAP_TAPCELL_ROW_111_2_2189
*31422 TAP_TAPCELL_ROW_111_2_2190
*31423 TAP_TAPCELL_ROW_112_1_1354
*31424 TAP_TAPCELL_ROW_112_1_1355
*31425 TAP_TAPCELL_ROW_112_2_2191
*31426 TAP_TAPCELL_ROW_112_2_2192
*31427 TAP_TAPCELL_ROW_112_2_2193
*31428 TAP_TAPCELL_ROW_113_1_1356
*31429 TAP_TAPCELL_ROW_113_1_1357
*31430 TAP_TAPCELL_ROW_113_2_2194
*31431 TAP_TAPCELL_ROW_113_2_2195
*31432 TAP_TAPCELL_ROW_114_1_1358
*31433 TAP_TAPCELL_ROW_114_1_1359
*31434 TAP_TAPCELL_ROW_114_2_2196
*31435 TAP_TAPCELL_ROW_114_2_2197
*31436 TAP_TAPCELL_ROW_114_2_2198
*31437 TAP_TAPCELL_ROW_115_1_1360
*31438 TAP_TAPCELL_ROW_115_1_1361
*31439 TAP_TAPCELL_ROW_115_2_2199
*31440 TAP_TAPCELL_ROW_115_2_2200
*31441 TAP_TAPCELL_ROW_116_1_1362
*31442 TAP_TAPCELL_ROW_116_1_1363
*31443 TAP_TAPCELL_ROW_116_2_2201
*31444 TAP_TAPCELL_ROW_116_2_2202
*31445 TAP_TAPCELL_ROW_116_2_2203
*31446 TAP_TAPCELL_ROW_117_1_1364
*31447 TAP_TAPCELL_ROW_117_1_1365
*31448 TAP_TAPCELL_ROW_117_2_2204
*31449 TAP_TAPCELL_ROW_117_2_2205
*31450 TAP_TAPCELL_ROW_118_1_1366
*31451 TAP_TAPCELL_ROW_118_1_1367
*31452 TAP_TAPCELL_ROW_118_2_2206
*31453 TAP_TAPCELL_ROW_118_2_2207
*31454 TAP_TAPCELL_ROW_118_2_2208
*31455 TAP_TAPCELL_ROW_119_1_1368
*31456 TAP_TAPCELL_ROW_119_1_1369
*31457 TAP_TAPCELL_ROW_119_2_2209
*31458 TAP_TAPCELL_ROW_119_2_2210
*31459 TAP_TAPCELL_ROW_11_976
*31460 TAP_TAPCELL_ROW_11_977
*31461 TAP_TAPCELL_ROW_11_978
*31462 TAP_TAPCELL_ROW_11_979
*31463 TAP_TAPCELL_ROW_11_980
*31464 TAP_TAPCELL_ROW_11_981
*31465 TAP_TAPCELL_ROW_11_982
*31466 TAP_TAPCELL_ROW_11_983
*31467 TAP_TAPCELL_ROW_11_984
*31468 TAP_TAPCELL_ROW_11_985
*31469 TAP_TAPCELL_ROW_11_986
*31470 TAP_TAPCELL_ROW_11_987
*31471 TAP_TAPCELL_ROW_11_988
*31472 TAP_TAPCELL_ROW_11_989
*31473 TAP_TAPCELL_ROW_11_990
*31474 TAP_TAPCELL_ROW_11_991
*31475 TAP_TAPCELL_ROW_11_992
*31476 TAP_TAPCELL_ROW_11_993
*31477 TAP_TAPCELL_ROW_11_994
*31478 TAP_TAPCELL_ROW_11_995
*31479 TAP_TAPCELL_ROW_11_996
*31480 TAP_TAPCELL_ROW_11_997
*31481 TAP_TAPCELL_ROW_11_998
*31482 TAP_TAPCELL_ROW_11_999
*31483 TAP_TAPCELL_ROW_120_1_1370
*31484 TAP_TAPCELL_ROW_120_1_1371
*31485 TAP_TAPCELL_ROW_120_2_2211
*31486 TAP_TAPCELL_ROW_120_2_2212
*31487 TAP_TAPCELL_ROW_120_2_2213
*31488 TAP_TAPCELL_ROW_121_1_1372
*31489 TAP_TAPCELL_ROW_121_1_1373
*31490 TAP_TAPCELL_ROW_121_2_2214
*31491 TAP_TAPCELL_ROW_121_2_2215
*31492 TAP_TAPCELL_ROW_122_1_1374
*31493 TAP_TAPCELL_ROW_122_1_1375
*31494 TAP_TAPCELL_ROW_122_2_2216
*31495 TAP_TAPCELL_ROW_122_2_2217
*31496 TAP_TAPCELL_ROW_122_2_2218
*31497 TAP_TAPCELL_ROW_123_1_1376
*31498 TAP_TAPCELL_ROW_123_1_1377
*31499 TAP_TAPCELL_ROW_123_2_2219
*31500 TAP_TAPCELL_ROW_123_2_2220
*31501 TAP_TAPCELL_ROW_124_1_1378
*31502 TAP_TAPCELL_ROW_124_1_1379
*31503 TAP_TAPCELL_ROW_124_2_2221
*31504 TAP_TAPCELL_ROW_124_2_2222
*31505 TAP_TAPCELL_ROW_124_2_2223
*31506 TAP_TAPCELL_ROW_125_1_1380
*31507 TAP_TAPCELL_ROW_125_1_1381
*31508 TAP_TAPCELL_ROW_125_2_2224
*31509 TAP_TAPCELL_ROW_125_2_2225
*31510 TAP_TAPCELL_ROW_126_1_1382
*31511 TAP_TAPCELL_ROW_126_1_1383
*31512 TAP_TAPCELL_ROW_126_2_2226
*31513 TAP_TAPCELL_ROW_126_2_2227
*31514 TAP_TAPCELL_ROW_126_2_2228
*31515 TAP_TAPCELL_ROW_127_1_1384
*31516 TAP_TAPCELL_ROW_127_1_1385
*31517 TAP_TAPCELL_ROW_127_2_2229
*31518 TAP_TAPCELL_ROW_127_2_2230
*31519 TAP_TAPCELL_ROW_128_1_1386
*31520 TAP_TAPCELL_ROW_128_1_1387
*31521 TAP_TAPCELL_ROW_128_2_2231
*31522 TAP_TAPCELL_ROW_128_2_2232
*31523 TAP_TAPCELL_ROW_128_2_2233
*31524 TAP_TAPCELL_ROW_129_1_1388
*31525 TAP_TAPCELL_ROW_129_1_1389
*31526 TAP_TAPCELL_ROW_129_2_2234
*31527 TAP_TAPCELL_ROW_129_2_2235
*31528 TAP_TAPCELL_ROW_12_1000
*31529 TAP_TAPCELL_ROW_12_1001
*31530 TAP_TAPCELL_ROW_12_1002
*31531 TAP_TAPCELL_ROW_12_1003
*31532 TAP_TAPCELL_ROW_12_1004
*31533 TAP_TAPCELL_ROW_12_1005
*31534 TAP_TAPCELL_ROW_12_1006
*31535 TAP_TAPCELL_ROW_12_1007
*31536 TAP_TAPCELL_ROW_12_1008
*31537 TAP_TAPCELL_ROW_12_1009
*31538 TAP_TAPCELL_ROW_12_1010
*31539 TAP_TAPCELL_ROW_12_1011
*31540 TAP_TAPCELL_ROW_12_1012
*31541 TAP_TAPCELL_ROW_12_1013
*31542 TAP_TAPCELL_ROW_12_1014
*31543 TAP_TAPCELL_ROW_12_1015
*31544 TAP_TAPCELL_ROW_12_1016
*31545 TAP_TAPCELL_ROW_12_1017
*31546 TAP_TAPCELL_ROW_12_1018
*31547 TAP_TAPCELL_ROW_12_1019
*31548 TAP_TAPCELL_ROW_12_1020
*31549 TAP_TAPCELL_ROW_12_1021
*31550 TAP_TAPCELL_ROW_12_1022
*31551 TAP_TAPCELL_ROW_12_1023
*31552 TAP_TAPCELL_ROW_130_1_1390
*31553 TAP_TAPCELL_ROW_130_1_1391
*31554 TAP_TAPCELL_ROW_130_2_2236
*31555 TAP_TAPCELL_ROW_130_2_2237
*31556 TAP_TAPCELL_ROW_130_2_2238
*31557 TAP_TAPCELL_ROW_131_1_1392
*31558 TAP_TAPCELL_ROW_131_1_1393
*31559 TAP_TAPCELL_ROW_131_2_2239
*31560 TAP_TAPCELL_ROW_131_2_2240
*31561 TAP_TAPCELL_ROW_132_1_1394
*31562 TAP_TAPCELL_ROW_132_1_1395
*31563 TAP_TAPCELL_ROW_132_2_2241
*31564 TAP_TAPCELL_ROW_132_2_2242
*31565 TAP_TAPCELL_ROW_132_2_2243
*31566 TAP_TAPCELL_ROW_133_1_1396
*31567 TAP_TAPCELL_ROW_133_1_1397
*31568 TAP_TAPCELL_ROW_133_2_2244
*31569 TAP_TAPCELL_ROW_133_2_2245
*31570 TAP_TAPCELL_ROW_134_1_1398
*31571 TAP_TAPCELL_ROW_134_1_1399
*31572 TAP_TAPCELL_ROW_134_2_2246
*31573 TAP_TAPCELL_ROW_134_2_2247
*31574 TAP_TAPCELL_ROW_134_2_2248
*31575 TAP_TAPCELL_ROW_135_1_1400
*31576 TAP_TAPCELL_ROW_135_1_1401
*31577 TAP_TAPCELL_ROW_135_2_2249
*31578 TAP_TAPCELL_ROW_135_2_2250
*31579 TAP_TAPCELL_ROW_136_1_1402
*31580 TAP_TAPCELL_ROW_136_1_1403
*31581 TAP_TAPCELL_ROW_136_2_2251
*31582 TAP_TAPCELL_ROW_136_2_2252
*31583 TAP_TAPCELL_ROW_136_2_2253
*31584 TAP_TAPCELL_ROW_137_1_1404
*31585 TAP_TAPCELL_ROW_137_1_1405
*31586 TAP_TAPCELL_ROW_137_2_2254
*31587 TAP_TAPCELL_ROW_137_2_2255
*31588 TAP_TAPCELL_ROW_138_1_1406
*31589 TAP_TAPCELL_ROW_138_1_1407
*31590 TAP_TAPCELL_ROW_138_2_2256
*31591 TAP_TAPCELL_ROW_138_2_2257
*31592 TAP_TAPCELL_ROW_138_2_2258
*31593 TAP_TAPCELL_ROW_139_1_1408
*31594 TAP_TAPCELL_ROW_139_1_1409
*31595 TAP_TAPCELL_ROW_139_2_2259
*31596 TAP_TAPCELL_ROW_139_2_2260
*31597 TAP_TAPCELL_ROW_13_1024
*31598 TAP_TAPCELL_ROW_13_1025
*31599 TAP_TAPCELL_ROW_13_1026
*31600 TAP_TAPCELL_ROW_13_1027
*31601 TAP_TAPCELL_ROW_13_1028
*31602 TAP_TAPCELL_ROW_13_1029
*31603 TAP_TAPCELL_ROW_13_1030
*31604 TAP_TAPCELL_ROW_13_1031
*31605 TAP_TAPCELL_ROW_13_1032
*31606 TAP_TAPCELL_ROW_13_1033
*31607 TAP_TAPCELL_ROW_13_1034
*31608 TAP_TAPCELL_ROW_13_1035
*31609 TAP_TAPCELL_ROW_13_1036
*31610 TAP_TAPCELL_ROW_13_1037
*31611 TAP_TAPCELL_ROW_13_1038
*31612 TAP_TAPCELL_ROW_13_1039
*31613 TAP_TAPCELL_ROW_13_1040
*31614 TAP_TAPCELL_ROW_13_1041
*31615 TAP_TAPCELL_ROW_13_1042
*31616 TAP_TAPCELL_ROW_13_1043
*31617 TAP_TAPCELL_ROW_13_1044
*31618 TAP_TAPCELL_ROW_13_1045
*31619 TAP_TAPCELL_ROW_13_1046
*31620 TAP_TAPCELL_ROW_13_1047
*31621 TAP_TAPCELL_ROW_140_1_1410
*31622 TAP_TAPCELL_ROW_140_1_1411
*31623 TAP_TAPCELL_ROW_140_2_2261
*31624 TAP_TAPCELL_ROW_140_2_2262
*31625 TAP_TAPCELL_ROW_140_2_2263
*31626 TAP_TAPCELL_ROW_141_1_1412
*31627 TAP_TAPCELL_ROW_141_1_1413
*31628 TAP_TAPCELL_ROW_141_2_2264
*31629 TAP_TAPCELL_ROW_141_2_2265
*31630 TAP_TAPCELL_ROW_142_1_1414
*31631 TAP_TAPCELL_ROW_142_1_1415
*31632 TAP_TAPCELL_ROW_142_2_2266
*31633 TAP_TAPCELL_ROW_142_2_2267
*31634 TAP_TAPCELL_ROW_142_2_2268
*31635 TAP_TAPCELL_ROW_143_1_1416
*31636 TAP_TAPCELL_ROW_143_1_1417
*31637 TAP_TAPCELL_ROW_143_2_2269
*31638 TAP_TAPCELL_ROW_143_2_2270
*31639 TAP_TAPCELL_ROW_144_1_1418
*31640 TAP_TAPCELL_ROW_144_1_1419
*31641 TAP_TAPCELL_ROW_144_2_2271
*31642 TAP_TAPCELL_ROW_144_2_2272
*31643 TAP_TAPCELL_ROW_144_2_2273
*31644 TAP_TAPCELL_ROW_145_1_1420
*31645 TAP_TAPCELL_ROW_145_1_1421
*31646 TAP_TAPCELL_ROW_145_2_2274
*31647 TAP_TAPCELL_ROW_145_2_2275
*31648 TAP_TAPCELL_ROW_146_1_1422
*31649 TAP_TAPCELL_ROW_146_1_1423
*31650 TAP_TAPCELL_ROW_146_2_2276
*31651 TAP_TAPCELL_ROW_146_2_2277
*31652 TAP_TAPCELL_ROW_146_2_2278
*31653 TAP_TAPCELL_ROW_147_1_1424
*31654 TAP_TAPCELL_ROW_147_1_1425
*31655 TAP_TAPCELL_ROW_147_2_2279
*31656 TAP_TAPCELL_ROW_147_2_2280
*31657 TAP_TAPCELL_ROW_148_1_1426
*31658 TAP_TAPCELL_ROW_148_1_1427
*31659 TAP_TAPCELL_ROW_148_2_2281
*31660 TAP_TAPCELL_ROW_148_2_2282
*31661 TAP_TAPCELL_ROW_148_2_2283
*31662 TAP_TAPCELL_ROW_149_1_1428
*31663 TAP_TAPCELL_ROW_149_1_1429
*31664 TAP_TAPCELL_ROW_149_2_2284
*31665 TAP_TAPCELL_ROW_149_2_2285
*31666 TAP_TAPCELL_ROW_14_1048
*31667 TAP_TAPCELL_ROW_14_1049
*31668 TAP_TAPCELL_ROW_14_1050
*31669 TAP_TAPCELL_ROW_14_1051
*31670 TAP_TAPCELL_ROW_14_1052
*31671 TAP_TAPCELL_ROW_14_1053
*31672 TAP_TAPCELL_ROW_14_1054
*31673 TAP_TAPCELL_ROW_14_1055
*31674 TAP_TAPCELL_ROW_14_1056
*31675 TAP_TAPCELL_ROW_14_1057
*31676 TAP_TAPCELL_ROW_14_1058
*31677 TAP_TAPCELL_ROW_14_1059
*31678 TAP_TAPCELL_ROW_14_1060
*31679 TAP_TAPCELL_ROW_14_1061
*31680 TAP_TAPCELL_ROW_14_1062
*31681 TAP_TAPCELL_ROW_14_1063
*31682 TAP_TAPCELL_ROW_14_1064
*31683 TAP_TAPCELL_ROW_14_1065
*31684 TAP_TAPCELL_ROW_14_1066
*31685 TAP_TAPCELL_ROW_14_1067
*31686 TAP_TAPCELL_ROW_14_1068
*31687 TAP_TAPCELL_ROW_14_1069
*31688 TAP_TAPCELL_ROW_14_1070
*31689 TAP_TAPCELL_ROW_14_1071
*31690 TAP_TAPCELL_ROW_150_1_1430
*31691 TAP_TAPCELL_ROW_150_1_1431
*31692 TAP_TAPCELL_ROW_150_2_2286
*31693 TAP_TAPCELL_ROW_150_2_2287
*31694 TAP_TAPCELL_ROW_150_2_2288
*31695 TAP_TAPCELL_ROW_151_1_1432
*31696 TAP_TAPCELL_ROW_151_1_1433
*31697 TAP_TAPCELL_ROW_151_2_2289
*31698 TAP_TAPCELL_ROW_151_2_2290
*31699 TAP_TAPCELL_ROW_152_1_1434
*31700 TAP_TAPCELL_ROW_152_1_1435
*31701 TAP_TAPCELL_ROW_152_2_2291
*31702 TAP_TAPCELL_ROW_152_2_2292
*31703 TAP_TAPCELL_ROW_152_2_2293
*31704 TAP_TAPCELL_ROW_153_1_1436
*31705 TAP_TAPCELL_ROW_153_1_1437
*31706 TAP_TAPCELL_ROW_153_2_2294
*31707 TAP_TAPCELL_ROW_153_2_2295
*31708 TAP_TAPCELL_ROW_154_1_1438
*31709 TAP_TAPCELL_ROW_154_1_1439
*31710 TAP_TAPCELL_ROW_154_2_2296
*31711 TAP_TAPCELL_ROW_154_2_2297
*31712 TAP_TAPCELL_ROW_154_2_2298
*31713 TAP_TAPCELL_ROW_155_1_1440
*31714 TAP_TAPCELL_ROW_155_1_1441
*31715 TAP_TAPCELL_ROW_155_2_2299
*31716 TAP_TAPCELL_ROW_155_2_2300
*31717 TAP_TAPCELL_ROW_156_1_1442
*31718 TAP_TAPCELL_ROW_156_1_1443
*31719 TAP_TAPCELL_ROW_156_2_2301
*31720 TAP_TAPCELL_ROW_156_2_2302
*31721 TAP_TAPCELL_ROW_156_2_2303
*31722 TAP_TAPCELL_ROW_157_1_1444
*31723 TAP_TAPCELL_ROW_157_1_1445
*31724 TAP_TAPCELL_ROW_157_2_2304
*31725 TAP_TAPCELL_ROW_157_2_2305
*31726 TAP_TAPCELL_ROW_158_1_1446
*31727 TAP_TAPCELL_ROW_158_1_1447
*31728 TAP_TAPCELL_ROW_158_2_2306
*31729 TAP_TAPCELL_ROW_158_2_2307
*31730 TAP_TAPCELL_ROW_158_2_2308
*31731 TAP_TAPCELL_ROW_159_1_1448
*31732 TAP_TAPCELL_ROW_159_1_1449
*31733 TAP_TAPCELL_ROW_159_2_2309
*31734 TAP_TAPCELL_ROW_159_2_2310
*31735 TAP_TAPCELL_ROW_15_1072
*31736 TAP_TAPCELL_ROW_15_1073
*31737 TAP_TAPCELL_ROW_15_1074
*31738 TAP_TAPCELL_ROW_15_1075
*31739 TAP_TAPCELL_ROW_15_1076
*31740 TAP_TAPCELL_ROW_15_1077
*31741 TAP_TAPCELL_ROW_15_1078
*31742 TAP_TAPCELL_ROW_15_1079
*31743 TAP_TAPCELL_ROW_15_1080
*31744 TAP_TAPCELL_ROW_15_1081
*31745 TAP_TAPCELL_ROW_15_1082
*31746 TAP_TAPCELL_ROW_15_1083
*31747 TAP_TAPCELL_ROW_15_1084
*31748 TAP_TAPCELL_ROW_15_1085
*31749 TAP_TAPCELL_ROW_15_1086
*31750 TAP_TAPCELL_ROW_15_1087
*31751 TAP_TAPCELL_ROW_15_1088
*31752 TAP_TAPCELL_ROW_15_1089
*31753 TAP_TAPCELL_ROW_15_1090
*31754 TAP_TAPCELL_ROW_15_1091
*31755 TAP_TAPCELL_ROW_15_1092
*31756 TAP_TAPCELL_ROW_15_1093
*31757 TAP_TAPCELL_ROW_15_1094
*31758 TAP_TAPCELL_ROW_15_1095
*31759 TAP_TAPCELL_ROW_160_1_1450
*31760 TAP_TAPCELL_ROW_160_1_1451
*31761 TAP_TAPCELL_ROW_160_2_2311
*31762 TAP_TAPCELL_ROW_160_2_2312
*31763 TAP_TAPCELL_ROW_160_2_2313
*31764 TAP_TAPCELL_ROW_161_1_1452
*31765 TAP_TAPCELL_ROW_161_1_1453
*31766 TAP_TAPCELL_ROW_161_2_2314
*31767 TAP_TAPCELL_ROW_161_2_2315
*31768 TAP_TAPCELL_ROW_162_1_1454
*31769 TAP_TAPCELL_ROW_162_1_1455
*31770 TAP_TAPCELL_ROW_162_2_2316
*31771 TAP_TAPCELL_ROW_162_2_2317
*31772 TAP_TAPCELL_ROW_162_2_2318
*31773 TAP_TAPCELL_ROW_163_1_1456
*31774 TAP_TAPCELL_ROW_163_1_1457
*31775 TAP_TAPCELL_ROW_163_2_2319
*31776 TAP_TAPCELL_ROW_163_2_2320
*31777 TAP_TAPCELL_ROW_164_1_1458
*31778 TAP_TAPCELL_ROW_164_1_1459
*31779 TAP_TAPCELL_ROW_164_2_2321
*31780 TAP_TAPCELL_ROW_164_2_2322
*31781 TAP_TAPCELL_ROW_164_2_2323
*31782 TAP_TAPCELL_ROW_165_1_1460
*31783 TAP_TAPCELL_ROW_165_1_1461
*31784 TAP_TAPCELL_ROW_165_2_2324
*31785 TAP_TAPCELL_ROW_165_2_2325
*31786 TAP_TAPCELL_ROW_166_1_1462
*31787 TAP_TAPCELL_ROW_166_1_1463
*31788 TAP_TAPCELL_ROW_166_2_2326
*31789 TAP_TAPCELL_ROW_166_2_2327
*31790 TAP_TAPCELL_ROW_166_2_2328
*31791 TAP_TAPCELL_ROW_167_1_1464
*31792 TAP_TAPCELL_ROW_167_1_1465
*31793 TAP_TAPCELL_ROW_167_2_2329
*31794 TAP_TAPCELL_ROW_167_2_2330
*31795 TAP_TAPCELL_ROW_168_1_1466
*31796 TAP_TAPCELL_ROW_168_1_1467
*31797 TAP_TAPCELL_ROW_168_2_2331
*31798 TAP_TAPCELL_ROW_168_2_2332
*31799 TAP_TAPCELL_ROW_168_2_2333
*31800 TAP_TAPCELL_ROW_169_1_1468
*31801 TAP_TAPCELL_ROW_169_1_1469
*31802 TAP_TAPCELL_ROW_169_2_2334
*31803 TAP_TAPCELL_ROW_169_2_2335
*31804 TAP_TAPCELL_ROW_16_1096
*31805 TAP_TAPCELL_ROW_16_1097
*31806 TAP_TAPCELL_ROW_16_1098
*31807 TAP_TAPCELL_ROW_16_1099
*31808 TAP_TAPCELL_ROW_16_1100
*31809 TAP_TAPCELL_ROW_16_1101
*31810 TAP_TAPCELL_ROW_16_1102
*31811 TAP_TAPCELL_ROW_16_1103
*31812 TAP_TAPCELL_ROW_16_1104
*31813 TAP_TAPCELL_ROW_16_1105
*31814 TAP_TAPCELL_ROW_16_1106
*31815 TAP_TAPCELL_ROW_16_1107
*31816 TAP_TAPCELL_ROW_16_1108
*31817 TAP_TAPCELL_ROW_16_1109
*31818 TAP_TAPCELL_ROW_16_1110
*31819 TAP_TAPCELL_ROW_16_1111
*31820 TAP_TAPCELL_ROW_16_1112
*31821 TAP_TAPCELL_ROW_16_1113
*31822 TAP_TAPCELL_ROW_16_1114
*31823 TAP_TAPCELL_ROW_16_1115
*31824 TAP_TAPCELL_ROW_16_1116
*31825 TAP_TAPCELL_ROW_16_1117
*31826 TAP_TAPCELL_ROW_16_1118
*31827 TAP_TAPCELL_ROW_16_1119
*31828 TAP_TAPCELL_ROW_170_1_1470
*31829 TAP_TAPCELL_ROW_170_1_1471
*31830 TAP_TAPCELL_ROW_170_2_2336
*31831 TAP_TAPCELL_ROW_170_2_2337
*31832 TAP_TAPCELL_ROW_170_2_2338
*31833 TAP_TAPCELL_ROW_171_1_1472
*31834 TAP_TAPCELL_ROW_171_1_1473
*31835 TAP_TAPCELL_ROW_171_2_2339
*31836 TAP_TAPCELL_ROW_171_2_2340
*31837 TAP_TAPCELL_ROW_172_1474
*31838 TAP_TAPCELL_ROW_172_1475
*31839 TAP_TAPCELL_ROW_172_1476
*31840 TAP_TAPCELL_ROW_172_1477
*31841 TAP_TAPCELL_ROW_172_1478
*31842 TAP_TAPCELL_ROW_172_1479
*31843 TAP_TAPCELL_ROW_172_1480
*31844 TAP_TAPCELL_ROW_172_1481
*31845 TAP_TAPCELL_ROW_172_1482
*31846 TAP_TAPCELL_ROW_172_1483
*31847 TAP_TAPCELL_ROW_172_1484
*31848 TAP_TAPCELL_ROW_172_1485
*31849 TAP_TAPCELL_ROW_172_1486
*31850 TAP_TAPCELL_ROW_172_1487
*31851 TAP_TAPCELL_ROW_172_1488
*31852 TAP_TAPCELL_ROW_172_1489
*31853 TAP_TAPCELL_ROW_172_1490
*31854 TAP_TAPCELL_ROW_172_1491
*31855 TAP_TAPCELL_ROW_172_1492
*31856 TAP_TAPCELL_ROW_172_1493
*31857 TAP_TAPCELL_ROW_172_1494
*31858 TAP_TAPCELL_ROW_172_1495
*31859 TAP_TAPCELL_ROW_172_1496
*31860 TAP_TAPCELL_ROW_172_1497
*31861 TAP_TAPCELL_ROW_172_1498
*31862 TAP_TAPCELL_ROW_172_1499
*31863 TAP_TAPCELL_ROW_172_1500
*31864 TAP_TAPCELL_ROW_172_1501
*31865 TAP_TAPCELL_ROW_172_1502
*31866 TAP_TAPCELL_ROW_172_1503
*31867 TAP_TAPCELL_ROW_172_1504
*31868 TAP_TAPCELL_ROW_172_1505
*31869 TAP_TAPCELL_ROW_172_1506
*31870 TAP_TAPCELL_ROW_172_1507
*31871 TAP_TAPCELL_ROW_172_1508
*31872 TAP_TAPCELL_ROW_172_1509
*31873 TAP_TAPCELL_ROW_172_1510
*31874 TAP_TAPCELL_ROW_172_1511
*31875 TAP_TAPCELL_ROW_172_1512
*31876 TAP_TAPCELL_ROW_172_1513
*31877 TAP_TAPCELL_ROW_172_1514
*31878 TAP_TAPCELL_ROW_172_1515
*31879 TAP_TAPCELL_ROW_172_1516
*31880 TAP_TAPCELL_ROW_172_1517
*31881 TAP_TAPCELL_ROW_172_1518
*31882 TAP_TAPCELL_ROW_172_1519
*31883 TAP_TAPCELL_ROW_172_1520
*31884 TAP_TAPCELL_ROW_172_1521
*31885 TAP_TAPCELL_ROW_173_1522
*31886 TAP_TAPCELL_ROW_173_1523
*31887 TAP_TAPCELL_ROW_173_1524
*31888 TAP_TAPCELL_ROW_173_1525
*31889 TAP_TAPCELL_ROW_173_1526
*31890 TAP_TAPCELL_ROW_173_1527
*31891 TAP_TAPCELL_ROW_173_1528
*31892 TAP_TAPCELL_ROW_173_1529
*31893 TAP_TAPCELL_ROW_173_1530
*31894 TAP_TAPCELL_ROW_173_1531
*31895 TAP_TAPCELL_ROW_173_1532
*31896 TAP_TAPCELL_ROW_173_1533
*31897 TAP_TAPCELL_ROW_173_1534
*31898 TAP_TAPCELL_ROW_173_1535
*31899 TAP_TAPCELL_ROW_173_1536
*31900 TAP_TAPCELL_ROW_173_1537
*31901 TAP_TAPCELL_ROW_173_1538
*31902 TAP_TAPCELL_ROW_173_1539
*31903 TAP_TAPCELL_ROW_173_1540
*31904 TAP_TAPCELL_ROW_173_1541
*31905 TAP_TAPCELL_ROW_173_1542
*31906 TAP_TAPCELL_ROW_173_1543
*31907 TAP_TAPCELL_ROW_173_1544
*31908 TAP_TAPCELL_ROW_173_1545
*31909 TAP_TAPCELL_ROW_174_1546
*31910 TAP_TAPCELL_ROW_174_1547
*31911 TAP_TAPCELL_ROW_174_1548
*31912 TAP_TAPCELL_ROW_174_1549
*31913 TAP_TAPCELL_ROW_174_1550
*31914 TAP_TAPCELL_ROW_174_1551
*31915 TAP_TAPCELL_ROW_174_1552
*31916 TAP_TAPCELL_ROW_174_1553
*31917 TAP_TAPCELL_ROW_174_1554
*31918 TAP_TAPCELL_ROW_174_1555
*31919 TAP_TAPCELL_ROW_174_1556
*31920 TAP_TAPCELL_ROW_174_1557
*31921 TAP_TAPCELL_ROW_174_1558
*31922 TAP_TAPCELL_ROW_174_1559
*31923 TAP_TAPCELL_ROW_174_1560
*31924 TAP_TAPCELL_ROW_174_1561
*31925 TAP_TAPCELL_ROW_174_1562
*31926 TAP_TAPCELL_ROW_174_1563
*31927 TAP_TAPCELL_ROW_174_1564
*31928 TAP_TAPCELL_ROW_174_1565
*31929 TAP_TAPCELL_ROW_174_1566
*31930 TAP_TAPCELL_ROW_174_1567
*31931 TAP_TAPCELL_ROW_174_1568
*31932 TAP_TAPCELL_ROW_174_1569
*31933 TAP_TAPCELL_ROW_175_1570
*31934 TAP_TAPCELL_ROW_175_1571
*31935 TAP_TAPCELL_ROW_175_1572
*31936 TAP_TAPCELL_ROW_175_1573
*31937 TAP_TAPCELL_ROW_175_1574
*31938 TAP_TAPCELL_ROW_175_1575
*31939 TAP_TAPCELL_ROW_175_1576
*31940 TAP_TAPCELL_ROW_175_1577
*31941 TAP_TAPCELL_ROW_175_1578
*31942 TAP_TAPCELL_ROW_175_1579
*31943 TAP_TAPCELL_ROW_175_1580
*31944 TAP_TAPCELL_ROW_175_1581
*31945 TAP_TAPCELL_ROW_175_1582
*31946 TAP_TAPCELL_ROW_175_1583
*31947 TAP_TAPCELL_ROW_175_1584
*31948 TAP_TAPCELL_ROW_175_1585
*31949 TAP_TAPCELL_ROW_175_1586
*31950 TAP_TAPCELL_ROW_175_1587
*31951 TAP_TAPCELL_ROW_175_1588
*31952 TAP_TAPCELL_ROW_175_1589
*31953 TAP_TAPCELL_ROW_175_1590
*31954 TAP_TAPCELL_ROW_175_1591
*31955 TAP_TAPCELL_ROW_175_1592
*31956 TAP_TAPCELL_ROW_175_1593
*31957 TAP_TAPCELL_ROW_176_1594
*31958 TAP_TAPCELL_ROW_176_1595
*31959 TAP_TAPCELL_ROW_176_1596
*31960 TAP_TAPCELL_ROW_176_1597
*31961 TAP_TAPCELL_ROW_176_1598
*31962 TAP_TAPCELL_ROW_176_1599
*31963 TAP_TAPCELL_ROW_176_1600
*31964 TAP_TAPCELL_ROW_176_1601
*31965 TAP_TAPCELL_ROW_176_1602
*31966 TAP_TAPCELL_ROW_176_1603
*31967 TAP_TAPCELL_ROW_176_1604
*31968 TAP_TAPCELL_ROW_176_1605
*31969 TAP_TAPCELL_ROW_176_1606
*31970 TAP_TAPCELL_ROW_176_1607
*31971 TAP_TAPCELL_ROW_176_1608
*31972 TAP_TAPCELL_ROW_176_1609
*31973 TAP_TAPCELL_ROW_176_1610
*31974 TAP_TAPCELL_ROW_176_1611
*31975 TAP_TAPCELL_ROW_176_1612
*31976 TAP_TAPCELL_ROW_176_1613
*31977 TAP_TAPCELL_ROW_176_1614
*31978 TAP_TAPCELL_ROW_176_1615
*31979 TAP_TAPCELL_ROW_176_1616
*31980 TAP_TAPCELL_ROW_176_1617
*31981 TAP_TAPCELL_ROW_177_1618
*31982 TAP_TAPCELL_ROW_177_1619
*31983 TAP_TAPCELL_ROW_177_1620
*31984 TAP_TAPCELL_ROW_177_1621
*31985 TAP_TAPCELL_ROW_177_1622
*31986 TAP_TAPCELL_ROW_177_1623
*31987 TAP_TAPCELL_ROW_177_1624
*31988 TAP_TAPCELL_ROW_177_1625
*31989 TAP_TAPCELL_ROW_177_1626
*31990 TAP_TAPCELL_ROW_177_1627
*31991 TAP_TAPCELL_ROW_177_1628
*31992 TAP_TAPCELL_ROW_177_1629
*31993 TAP_TAPCELL_ROW_177_1630
*31994 TAP_TAPCELL_ROW_177_1631
*31995 TAP_TAPCELL_ROW_177_1632
*31996 TAP_TAPCELL_ROW_177_1633
*31997 TAP_TAPCELL_ROW_177_1634
*31998 TAP_TAPCELL_ROW_177_1635
*31999 TAP_TAPCELL_ROW_177_1636
*32000 TAP_TAPCELL_ROW_177_1637
*32001 TAP_TAPCELL_ROW_177_1638
*32002 TAP_TAPCELL_ROW_177_1639
*32003 TAP_TAPCELL_ROW_177_1640
*32004 TAP_TAPCELL_ROW_177_1641
*32005 TAP_TAPCELL_ROW_178_1642
*32006 TAP_TAPCELL_ROW_178_1643
*32007 TAP_TAPCELL_ROW_178_1644
*32008 TAP_TAPCELL_ROW_178_1645
*32009 TAP_TAPCELL_ROW_178_1646
*32010 TAP_TAPCELL_ROW_178_1647
*32011 TAP_TAPCELL_ROW_178_1648
*32012 TAP_TAPCELL_ROW_178_1649
*32013 TAP_TAPCELL_ROW_178_1650
*32014 TAP_TAPCELL_ROW_178_1651
*32015 TAP_TAPCELL_ROW_178_1652
*32016 TAP_TAPCELL_ROW_178_1653
*32017 TAP_TAPCELL_ROW_178_1654
*32018 TAP_TAPCELL_ROW_178_1655
*32019 TAP_TAPCELL_ROW_178_1656
*32020 TAP_TAPCELL_ROW_178_1657
*32021 TAP_TAPCELL_ROW_178_1658
*32022 TAP_TAPCELL_ROW_178_1659
*32023 TAP_TAPCELL_ROW_178_1660
*32024 TAP_TAPCELL_ROW_178_1661
*32025 TAP_TAPCELL_ROW_178_1662
*32026 TAP_TAPCELL_ROW_178_1663
*32027 TAP_TAPCELL_ROW_178_1664
*32028 TAP_TAPCELL_ROW_178_1665
*32029 TAP_TAPCELL_ROW_179_1666
*32030 TAP_TAPCELL_ROW_179_1667
*32031 TAP_TAPCELL_ROW_179_1668
*32032 TAP_TAPCELL_ROW_179_1669
*32033 TAP_TAPCELL_ROW_179_1670
*32034 TAP_TAPCELL_ROW_179_1671
*32035 TAP_TAPCELL_ROW_179_1672
*32036 TAP_TAPCELL_ROW_179_1673
*32037 TAP_TAPCELL_ROW_179_1674
*32038 TAP_TAPCELL_ROW_179_1675
*32039 TAP_TAPCELL_ROW_179_1676
*32040 TAP_TAPCELL_ROW_179_1677
*32041 TAP_TAPCELL_ROW_179_1678
*32042 TAP_TAPCELL_ROW_179_1679
*32043 TAP_TAPCELL_ROW_179_1680
*32044 TAP_TAPCELL_ROW_179_1681
*32045 TAP_TAPCELL_ROW_179_1682
*32046 TAP_TAPCELL_ROW_179_1683
*32047 TAP_TAPCELL_ROW_179_1684
*32048 TAP_TAPCELL_ROW_179_1685
*32049 TAP_TAPCELL_ROW_179_1686
*32050 TAP_TAPCELL_ROW_179_1687
*32051 TAP_TAPCELL_ROW_179_1688
*32052 TAP_TAPCELL_ROW_179_1689
*32053 TAP_TAPCELL_ROW_17_1120
*32054 TAP_TAPCELL_ROW_17_1121
*32055 TAP_TAPCELL_ROW_17_1122
*32056 TAP_TAPCELL_ROW_17_1123
*32057 TAP_TAPCELL_ROW_17_1124
*32058 TAP_TAPCELL_ROW_17_1125
*32059 TAP_TAPCELL_ROW_17_1126
*32060 TAP_TAPCELL_ROW_17_1127
*32061 TAP_TAPCELL_ROW_17_1128
*32062 TAP_TAPCELL_ROW_17_1129
*32063 TAP_TAPCELL_ROW_17_1130
*32064 TAP_TAPCELL_ROW_17_1131
*32065 TAP_TAPCELL_ROW_17_1132
*32066 TAP_TAPCELL_ROW_17_1133
*32067 TAP_TAPCELL_ROW_17_1134
*32068 TAP_TAPCELL_ROW_17_1135
*32069 TAP_TAPCELL_ROW_17_1136
*32070 TAP_TAPCELL_ROW_17_1137
*32071 TAP_TAPCELL_ROW_17_1138
*32072 TAP_TAPCELL_ROW_17_1139
*32073 TAP_TAPCELL_ROW_17_1140
*32074 TAP_TAPCELL_ROW_17_1141
*32075 TAP_TAPCELL_ROW_17_1142
*32076 TAP_TAPCELL_ROW_17_1143
*32077 TAP_TAPCELL_ROW_17_1144
*32078 TAP_TAPCELL_ROW_17_1145
*32079 TAP_TAPCELL_ROW_17_1146
*32080 TAP_TAPCELL_ROW_17_1147
*32081 TAP_TAPCELL_ROW_17_1148
*32082 TAP_TAPCELL_ROW_17_1149
*32083 TAP_TAPCELL_ROW_17_1150
*32084 TAP_TAPCELL_ROW_17_1151
*32085 TAP_TAPCELL_ROW_17_1152
*32086 TAP_TAPCELL_ROW_17_1153
*32087 TAP_TAPCELL_ROW_17_1154
*32088 TAP_TAPCELL_ROW_17_1155
*32089 TAP_TAPCELL_ROW_17_1156
*32090 TAP_TAPCELL_ROW_17_1157
*32091 TAP_TAPCELL_ROW_17_1158
*32092 TAP_TAPCELL_ROW_17_1159
*32093 TAP_TAPCELL_ROW_17_1160
*32094 TAP_TAPCELL_ROW_17_1161
*32095 TAP_TAPCELL_ROW_17_1162
*32096 TAP_TAPCELL_ROW_17_1163
*32097 TAP_TAPCELL_ROW_17_1164
*32098 TAP_TAPCELL_ROW_17_1165
*32099 TAP_TAPCELL_ROW_17_1166
*32100 TAP_TAPCELL_ROW_17_1167
*32101 TAP_TAPCELL_ROW_180_1690
*32102 TAP_TAPCELL_ROW_180_1691
*32103 TAP_TAPCELL_ROW_180_1692
*32104 TAP_TAPCELL_ROW_180_1693
*32105 TAP_TAPCELL_ROW_180_1694
*32106 TAP_TAPCELL_ROW_180_1695
*32107 TAP_TAPCELL_ROW_180_1696
*32108 TAP_TAPCELL_ROW_180_1697
*32109 TAP_TAPCELL_ROW_180_1698
*32110 TAP_TAPCELL_ROW_180_1699
*32111 TAP_TAPCELL_ROW_180_1700
*32112 TAP_TAPCELL_ROW_180_1701
*32113 TAP_TAPCELL_ROW_180_1702
*32114 TAP_TAPCELL_ROW_180_1703
*32115 TAP_TAPCELL_ROW_180_1704
*32116 TAP_TAPCELL_ROW_180_1705
*32117 TAP_TAPCELL_ROW_180_1706
*32118 TAP_TAPCELL_ROW_180_1707
*32119 TAP_TAPCELL_ROW_180_1708
*32120 TAP_TAPCELL_ROW_180_1709
*32121 TAP_TAPCELL_ROW_180_1710
*32122 TAP_TAPCELL_ROW_180_1711
*32123 TAP_TAPCELL_ROW_180_1712
*32124 TAP_TAPCELL_ROW_180_1713
*32125 TAP_TAPCELL_ROW_181_1714
*32126 TAP_TAPCELL_ROW_181_1715
*32127 TAP_TAPCELL_ROW_181_1716
*32128 TAP_TAPCELL_ROW_181_1717
*32129 TAP_TAPCELL_ROW_181_1718
*32130 TAP_TAPCELL_ROW_181_1719
*32131 TAP_TAPCELL_ROW_181_1720
*32132 TAP_TAPCELL_ROW_181_1721
*32133 TAP_TAPCELL_ROW_181_1722
*32134 TAP_TAPCELL_ROW_181_1723
*32135 TAP_TAPCELL_ROW_181_1724
*32136 TAP_TAPCELL_ROW_181_1725
*32137 TAP_TAPCELL_ROW_181_1726
*32138 TAP_TAPCELL_ROW_181_1727
*32139 TAP_TAPCELL_ROW_181_1728
*32140 TAP_TAPCELL_ROW_181_1729
*32141 TAP_TAPCELL_ROW_181_1730
*32142 TAP_TAPCELL_ROW_181_1731
*32143 TAP_TAPCELL_ROW_181_1732
*32144 TAP_TAPCELL_ROW_181_1733
*32145 TAP_TAPCELL_ROW_181_1734
*32146 TAP_TAPCELL_ROW_181_1735
*32147 TAP_TAPCELL_ROW_181_1736
*32148 TAP_TAPCELL_ROW_181_1737
*32149 TAP_TAPCELL_ROW_182_1738
*32150 TAP_TAPCELL_ROW_182_1739
*32151 TAP_TAPCELL_ROW_182_1740
*32152 TAP_TAPCELL_ROW_182_1741
*32153 TAP_TAPCELL_ROW_182_1742
*32154 TAP_TAPCELL_ROW_182_1743
*32155 TAP_TAPCELL_ROW_182_1744
*32156 TAP_TAPCELL_ROW_182_1745
*32157 TAP_TAPCELL_ROW_182_1746
*32158 TAP_TAPCELL_ROW_182_1747
*32159 TAP_TAPCELL_ROW_182_1748
*32160 TAP_TAPCELL_ROW_182_1749
*32161 TAP_TAPCELL_ROW_182_1750
*32162 TAP_TAPCELL_ROW_182_1751
*32163 TAP_TAPCELL_ROW_182_1752
*32164 TAP_TAPCELL_ROW_182_1753
*32165 TAP_TAPCELL_ROW_182_1754
*32166 TAP_TAPCELL_ROW_182_1755
*32167 TAP_TAPCELL_ROW_182_1756
*32168 TAP_TAPCELL_ROW_182_1757
*32169 TAP_TAPCELL_ROW_182_1758
*32170 TAP_TAPCELL_ROW_182_1759
*32171 TAP_TAPCELL_ROW_182_1760
*32172 TAP_TAPCELL_ROW_182_1761
*32173 TAP_TAPCELL_ROW_183_1762
*32174 TAP_TAPCELL_ROW_183_1763
*32175 TAP_TAPCELL_ROW_183_1764
*32176 TAP_TAPCELL_ROW_183_1765
*32177 TAP_TAPCELL_ROW_183_1766
*32178 TAP_TAPCELL_ROW_183_1767
*32179 TAP_TAPCELL_ROW_183_1768
*32180 TAP_TAPCELL_ROW_183_1769
*32181 TAP_TAPCELL_ROW_183_1770
*32182 TAP_TAPCELL_ROW_183_1771
*32183 TAP_TAPCELL_ROW_183_1772
*32184 TAP_TAPCELL_ROW_183_1773
*32185 TAP_TAPCELL_ROW_183_1774
*32186 TAP_TAPCELL_ROW_183_1775
*32187 TAP_TAPCELL_ROW_183_1776
*32188 TAP_TAPCELL_ROW_183_1777
*32189 TAP_TAPCELL_ROW_183_1778
*32190 TAP_TAPCELL_ROW_183_1779
*32191 TAP_TAPCELL_ROW_183_1780
*32192 TAP_TAPCELL_ROW_183_1781
*32193 TAP_TAPCELL_ROW_183_1782
*32194 TAP_TAPCELL_ROW_183_1783
*32195 TAP_TAPCELL_ROW_183_1784
*32196 TAP_TAPCELL_ROW_183_1785
*32197 TAP_TAPCELL_ROW_184_1786
*32198 TAP_TAPCELL_ROW_184_1787
*32199 TAP_TAPCELL_ROW_184_1788
*32200 TAP_TAPCELL_ROW_184_1789
*32201 TAP_TAPCELL_ROW_184_1790
*32202 TAP_TAPCELL_ROW_184_1791
*32203 TAP_TAPCELL_ROW_184_1792
*32204 TAP_TAPCELL_ROW_184_1793
*32205 TAP_TAPCELL_ROW_184_1794
*32206 TAP_TAPCELL_ROW_184_1795
*32207 TAP_TAPCELL_ROW_184_1796
*32208 TAP_TAPCELL_ROW_184_1797
*32209 TAP_TAPCELL_ROW_184_1798
*32210 TAP_TAPCELL_ROW_184_1799
*32211 TAP_TAPCELL_ROW_184_1800
*32212 TAP_TAPCELL_ROW_184_1801
*32213 TAP_TAPCELL_ROW_184_1802
*32214 TAP_TAPCELL_ROW_184_1803
*32215 TAP_TAPCELL_ROW_184_1804
*32216 TAP_TAPCELL_ROW_184_1805
*32217 TAP_TAPCELL_ROW_184_1806
*32218 TAP_TAPCELL_ROW_184_1807
*32219 TAP_TAPCELL_ROW_184_1808
*32220 TAP_TAPCELL_ROW_184_1809
*32221 TAP_TAPCELL_ROW_185_1810
*32222 TAP_TAPCELL_ROW_185_1811
*32223 TAP_TAPCELL_ROW_185_1812
*32224 TAP_TAPCELL_ROW_185_1813
*32225 TAP_TAPCELL_ROW_185_1814
*32226 TAP_TAPCELL_ROW_185_1815
*32227 TAP_TAPCELL_ROW_185_1816
*32228 TAP_TAPCELL_ROW_185_1817
*32229 TAP_TAPCELL_ROW_185_1818
*32230 TAP_TAPCELL_ROW_185_1819
*32231 TAP_TAPCELL_ROW_185_1820
*32232 TAP_TAPCELL_ROW_185_1821
*32233 TAP_TAPCELL_ROW_185_1822
*32234 TAP_TAPCELL_ROW_185_1823
*32235 TAP_TAPCELL_ROW_185_1824
*32236 TAP_TAPCELL_ROW_185_1825
*32237 TAP_TAPCELL_ROW_185_1826
*32238 TAP_TAPCELL_ROW_185_1827
*32239 TAP_TAPCELL_ROW_185_1828
*32240 TAP_TAPCELL_ROW_185_1829
*32241 TAP_TAPCELL_ROW_185_1830
*32242 TAP_TAPCELL_ROW_185_1831
*32243 TAP_TAPCELL_ROW_185_1832
*32244 TAP_TAPCELL_ROW_185_1833
*32245 TAP_TAPCELL_ROW_186_1834
*32246 TAP_TAPCELL_ROW_186_1835
*32247 TAP_TAPCELL_ROW_186_1836
*32248 TAP_TAPCELL_ROW_186_1837
*32249 TAP_TAPCELL_ROW_186_1838
*32250 TAP_TAPCELL_ROW_186_1839
*32251 TAP_TAPCELL_ROW_186_1840
*32252 TAP_TAPCELL_ROW_186_1841
*32253 TAP_TAPCELL_ROW_186_1842
*32254 TAP_TAPCELL_ROW_186_1843
*32255 TAP_TAPCELL_ROW_186_1844
*32256 TAP_TAPCELL_ROW_186_1845
*32257 TAP_TAPCELL_ROW_186_1846
*32258 TAP_TAPCELL_ROW_186_1847
*32259 TAP_TAPCELL_ROW_186_1848
*32260 TAP_TAPCELL_ROW_186_1849
*32261 TAP_TAPCELL_ROW_186_1850
*32262 TAP_TAPCELL_ROW_186_1851
*32263 TAP_TAPCELL_ROW_186_1852
*32264 TAP_TAPCELL_ROW_186_1853
*32265 TAP_TAPCELL_ROW_186_1854
*32266 TAP_TAPCELL_ROW_186_1855
*32267 TAP_TAPCELL_ROW_186_1856
*32268 TAP_TAPCELL_ROW_186_1857
*32269 TAP_TAPCELL_ROW_187_1858
*32270 TAP_TAPCELL_ROW_187_1859
*32271 TAP_TAPCELL_ROW_187_1860
*32272 TAP_TAPCELL_ROW_187_1861
*32273 TAP_TAPCELL_ROW_187_1862
*32274 TAP_TAPCELL_ROW_187_1863
*32275 TAP_TAPCELL_ROW_187_1864
*32276 TAP_TAPCELL_ROW_187_1865
*32277 TAP_TAPCELL_ROW_187_1866
*32278 TAP_TAPCELL_ROW_187_1867
*32279 TAP_TAPCELL_ROW_187_1868
*32280 TAP_TAPCELL_ROW_187_1869
*32281 TAP_TAPCELL_ROW_187_1870
*32282 TAP_TAPCELL_ROW_187_1871
*32283 TAP_TAPCELL_ROW_187_1872
*32284 TAP_TAPCELL_ROW_187_1873
*32285 TAP_TAPCELL_ROW_187_1874
*32286 TAP_TAPCELL_ROW_187_1875
*32287 TAP_TAPCELL_ROW_187_1876
*32288 TAP_TAPCELL_ROW_187_1877
*32289 TAP_TAPCELL_ROW_187_1878
*32290 TAP_TAPCELL_ROW_187_1879
*32291 TAP_TAPCELL_ROW_187_1880
*32292 TAP_TAPCELL_ROW_187_1881
*32293 TAP_TAPCELL_ROW_188_1882
*32294 TAP_TAPCELL_ROW_188_1883
*32295 TAP_TAPCELL_ROW_188_1884
*32296 TAP_TAPCELL_ROW_188_1885
*32297 TAP_TAPCELL_ROW_188_1886
*32298 TAP_TAPCELL_ROW_188_1887
*32299 TAP_TAPCELL_ROW_188_1888
*32300 TAP_TAPCELL_ROW_188_1889
*32301 TAP_TAPCELL_ROW_188_1890
*32302 TAP_TAPCELL_ROW_188_1891
*32303 TAP_TAPCELL_ROW_188_1892
*32304 TAP_TAPCELL_ROW_188_1893
*32305 TAP_TAPCELL_ROW_188_1894
*32306 TAP_TAPCELL_ROW_188_1895
*32307 TAP_TAPCELL_ROW_188_1896
*32308 TAP_TAPCELL_ROW_188_1897
*32309 TAP_TAPCELL_ROW_188_1898
*32310 TAP_TAPCELL_ROW_188_1899
*32311 TAP_TAPCELL_ROW_188_1900
*32312 TAP_TAPCELL_ROW_188_1901
*32313 TAP_TAPCELL_ROW_188_1902
*32314 TAP_TAPCELL_ROW_188_1903
*32315 TAP_TAPCELL_ROW_188_1904
*32316 TAP_TAPCELL_ROW_188_1905
*32317 TAP_TAPCELL_ROW_189_1906
*32318 TAP_TAPCELL_ROW_189_1907
*32319 TAP_TAPCELL_ROW_189_1908
*32320 TAP_TAPCELL_ROW_189_1909
*32321 TAP_TAPCELL_ROW_189_1910
*32322 TAP_TAPCELL_ROW_189_1911
*32323 TAP_TAPCELL_ROW_189_1912
*32324 TAP_TAPCELL_ROW_189_1913
*32325 TAP_TAPCELL_ROW_189_1914
*32326 TAP_TAPCELL_ROW_189_1915
*32327 TAP_TAPCELL_ROW_189_1916
*32328 TAP_TAPCELL_ROW_189_1917
*32329 TAP_TAPCELL_ROW_189_1918
*32330 TAP_TAPCELL_ROW_189_1919
*32331 TAP_TAPCELL_ROW_189_1920
*32332 TAP_TAPCELL_ROW_189_1921
*32333 TAP_TAPCELL_ROW_189_1922
*32334 TAP_TAPCELL_ROW_189_1923
*32335 TAP_TAPCELL_ROW_189_1924
*32336 TAP_TAPCELL_ROW_189_1925
*32337 TAP_TAPCELL_ROW_189_1926
*32338 TAP_TAPCELL_ROW_189_1927
*32339 TAP_TAPCELL_ROW_189_1928
*32340 TAP_TAPCELL_ROW_189_1929
*32341 TAP_TAPCELL_ROW_189_1930
*32342 TAP_TAPCELL_ROW_189_1931
*32343 TAP_TAPCELL_ROW_189_1932
*32344 TAP_TAPCELL_ROW_189_1933
*32345 TAP_TAPCELL_ROW_189_1934
*32346 TAP_TAPCELL_ROW_189_1935
*32347 TAP_TAPCELL_ROW_189_1936
*32348 TAP_TAPCELL_ROW_189_1937
*32349 TAP_TAPCELL_ROW_189_1938
*32350 TAP_TAPCELL_ROW_189_1939
*32351 TAP_TAPCELL_ROW_189_1940
*32352 TAP_TAPCELL_ROW_189_1941
*32353 TAP_TAPCELL_ROW_189_1942
*32354 TAP_TAPCELL_ROW_189_1943
*32355 TAP_TAPCELL_ROW_189_1944
*32356 TAP_TAPCELL_ROW_189_1945
*32357 TAP_TAPCELL_ROW_189_1946
*32358 TAP_TAPCELL_ROW_189_1947
*32359 TAP_TAPCELL_ROW_189_1948
*32360 TAP_TAPCELL_ROW_189_1949
*32361 TAP_TAPCELL_ROW_189_1950
*32362 TAP_TAPCELL_ROW_189_1951
*32363 TAP_TAPCELL_ROW_189_1952
*32364 TAP_TAPCELL_ROW_189_1953
*32365 TAP_TAPCELL_ROW_18_1_1954
*32366 TAP_TAPCELL_ROW_18_1_1955
*32367 TAP_TAPCELL_ROW_18_2_1956
*32368 TAP_TAPCELL_ROW_18_2_1957
*32369 TAP_TAPCELL_ROW_18_2_1958
*32370 TAP_TAPCELL_ROW_19_1_1168
*32371 TAP_TAPCELL_ROW_19_1_1169
*32372 TAP_TAPCELL_ROW_19_2_1959
*32373 TAP_TAPCELL_ROW_19_2_1960
*32374 TAP_TAPCELL_ROW_1_736
*32375 TAP_TAPCELL_ROW_1_737
*32376 TAP_TAPCELL_ROW_1_738
*32377 TAP_TAPCELL_ROW_1_739
*32378 TAP_TAPCELL_ROW_1_740
*32379 TAP_TAPCELL_ROW_1_741
*32380 TAP_TAPCELL_ROW_1_742
*32381 TAP_TAPCELL_ROW_1_743
*32382 TAP_TAPCELL_ROW_1_744
*32383 TAP_TAPCELL_ROW_1_745
*32384 TAP_TAPCELL_ROW_1_746
*32385 TAP_TAPCELL_ROW_1_747
*32386 TAP_TAPCELL_ROW_1_748
*32387 TAP_TAPCELL_ROW_1_749
*32388 TAP_TAPCELL_ROW_1_750
*32389 TAP_TAPCELL_ROW_1_751
*32390 TAP_TAPCELL_ROW_1_752
*32391 TAP_TAPCELL_ROW_1_753
*32392 TAP_TAPCELL_ROW_1_754
*32393 TAP_TAPCELL_ROW_1_755
*32394 TAP_TAPCELL_ROW_1_756
*32395 TAP_TAPCELL_ROW_1_757
*32396 TAP_TAPCELL_ROW_1_758
*32397 TAP_TAPCELL_ROW_1_759
*32398 TAP_TAPCELL_ROW_20_1_1170
*32399 TAP_TAPCELL_ROW_20_1_1171
*32400 TAP_TAPCELL_ROW_20_2_1961
*32401 TAP_TAPCELL_ROW_20_2_1962
*32402 TAP_TAPCELL_ROW_20_2_1963
*32403 TAP_TAPCELL_ROW_21_1_1172
*32404 TAP_TAPCELL_ROW_21_1_1173
*32405 TAP_TAPCELL_ROW_21_2_1964
*32406 TAP_TAPCELL_ROW_21_2_1965
*32407 TAP_TAPCELL_ROW_22_1_1174
*32408 TAP_TAPCELL_ROW_22_1_1175
*32409 TAP_TAPCELL_ROW_22_2_1966
*32410 TAP_TAPCELL_ROW_22_2_1967
*32411 TAP_TAPCELL_ROW_22_2_1968
*32412 TAP_TAPCELL_ROW_23_1_1176
*32413 TAP_TAPCELL_ROW_23_1_1177
*32414 TAP_TAPCELL_ROW_23_2_1969
*32415 TAP_TAPCELL_ROW_23_2_1970
*32416 TAP_TAPCELL_ROW_24_1_1178
*32417 TAP_TAPCELL_ROW_24_1_1179
*32418 TAP_TAPCELL_ROW_24_2_1971
*32419 TAP_TAPCELL_ROW_24_2_1972
*32420 TAP_TAPCELL_ROW_24_2_1973
*32421 TAP_TAPCELL_ROW_25_1_1180
*32422 TAP_TAPCELL_ROW_25_1_1181
*32423 TAP_TAPCELL_ROW_25_2_1974
*32424 TAP_TAPCELL_ROW_25_2_1975
*32425 TAP_TAPCELL_ROW_26_1_1182
*32426 TAP_TAPCELL_ROW_26_1_1183
*32427 TAP_TAPCELL_ROW_26_2_1976
*32428 TAP_TAPCELL_ROW_26_2_1977
*32429 TAP_TAPCELL_ROW_26_2_1978
*32430 TAP_TAPCELL_ROW_27_1_1184
*32431 TAP_TAPCELL_ROW_27_1_1185
*32432 TAP_TAPCELL_ROW_27_2_1979
*32433 TAP_TAPCELL_ROW_27_2_1980
*32434 TAP_TAPCELL_ROW_28_1_1186
*32435 TAP_TAPCELL_ROW_28_1_1187
*32436 TAP_TAPCELL_ROW_28_2_1981
*32437 TAP_TAPCELL_ROW_28_2_1982
*32438 TAP_TAPCELL_ROW_28_2_1983
*32439 TAP_TAPCELL_ROW_29_1_1188
*32440 TAP_TAPCELL_ROW_29_1_1189
*32441 TAP_TAPCELL_ROW_29_2_1984
*32442 TAP_TAPCELL_ROW_29_2_1985
*32443 TAP_TAPCELL_ROW_2_760
*32444 TAP_TAPCELL_ROW_2_761
*32445 TAP_TAPCELL_ROW_2_762
*32446 TAP_TAPCELL_ROW_2_763
*32447 TAP_TAPCELL_ROW_2_764
*32448 TAP_TAPCELL_ROW_2_765
*32449 TAP_TAPCELL_ROW_2_766
*32450 TAP_TAPCELL_ROW_2_767
*32451 TAP_TAPCELL_ROW_2_768
*32452 TAP_TAPCELL_ROW_2_769
*32453 TAP_TAPCELL_ROW_2_770
*32454 TAP_TAPCELL_ROW_2_771
*32455 TAP_TAPCELL_ROW_2_772
*32456 TAP_TAPCELL_ROW_2_773
*32457 TAP_TAPCELL_ROW_2_774
*32458 TAP_TAPCELL_ROW_2_775
*32459 TAP_TAPCELL_ROW_2_776
*32460 TAP_TAPCELL_ROW_2_777
*32461 TAP_TAPCELL_ROW_2_778
*32462 TAP_TAPCELL_ROW_2_779
*32463 TAP_TAPCELL_ROW_2_780
*32464 TAP_TAPCELL_ROW_2_781
*32465 TAP_TAPCELL_ROW_2_782
*32466 TAP_TAPCELL_ROW_2_783
*32467 TAP_TAPCELL_ROW_30_1_1190
*32468 TAP_TAPCELL_ROW_30_1_1191
*32469 TAP_TAPCELL_ROW_30_2_1986
*32470 TAP_TAPCELL_ROW_30_2_1987
*32471 TAP_TAPCELL_ROW_30_2_1988
*32472 TAP_TAPCELL_ROW_31_1_1192
*32473 TAP_TAPCELL_ROW_31_1_1193
*32474 TAP_TAPCELL_ROW_31_2_1989
*32475 TAP_TAPCELL_ROW_31_2_1990
*32476 TAP_TAPCELL_ROW_32_1_1194
*32477 TAP_TAPCELL_ROW_32_1_1195
*32478 TAP_TAPCELL_ROW_32_2_1991
*32479 TAP_TAPCELL_ROW_32_2_1992
*32480 TAP_TAPCELL_ROW_32_2_1993
*32481 TAP_TAPCELL_ROW_33_1_1196
*32482 TAP_TAPCELL_ROW_33_1_1197
*32483 TAP_TAPCELL_ROW_33_2_1994
*32484 TAP_TAPCELL_ROW_33_2_1995
*32485 TAP_TAPCELL_ROW_34_1_1198
*32486 TAP_TAPCELL_ROW_34_1_1199
*32487 TAP_TAPCELL_ROW_34_2_1996
*32488 TAP_TAPCELL_ROW_34_2_1997
*32489 TAP_TAPCELL_ROW_34_2_1998
*32490 TAP_TAPCELL_ROW_35_1_1200
*32491 TAP_TAPCELL_ROW_35_1_1201
*32492 TAP_TAPCELL_ROW_35_2_1999
*32493 TAP_TAPCELL_ROW_35_2_2000
*32494 TAP_TAPCELL_ROW_36_1_1202
*32495 TAP_TAPCELL_ROW_36_1_1203
*32496 TAP_TAPCELL_ROW_36_2_2001
*32497 TAP_TAPCELL_ROW_36_2_2002
*32498 TAP_TAPCELL_ROW_36_2_2003
*32499 TAP_TAPCELL_ROW_37_1_1204
*32500 TAP_TAPCELL_ROW_37_1_1205
*32501 TAP_TAPCELL_ROW_37_2_2004
*32502 TAP_TAPCELL_ROW_37_2_2005
*32503 TAP_TAPCELL_ROW_38_1_1206
*32504 TAP_TAPCELL_ROW_38_1_1207
*32505 TAP_TAPCELL_ROW_38_2_2006
*32506 TAP_TAPCELL_ROW_38_2_2007
*32507 TAP_TAPCELL_ROW_38_2_2008
*32508 TAP_TAPCELL_ROW_39_1_1208
*32509 TAP_TAPCELL_ROW_39_1_1209
*32510 TAP_TAPCELL_ROW_39_2_2009
*32511 TAP_TAPCELL_ROW_39_2_2010
*32512 TAP_TAPCELL_ROW_3_784
*32513 TAP_TAPCELL_ROW_3_785
*32514 TAP_TAPCELL_ROW_3_786
*32515 TAP_TAPCELL_ROW_3_787
*32516 TAP_TAPCELL_ROW_3_788
*32517 TAP_TAPCELL_ROW_3_789
*32518 TAP_TAPCELL_ROW_3_790
*32519 TAP_TAPCELL_ROW_3_791
*32520 TAP_TAPCELL_ROW_3_792
*32521 TAP_TAPCELL_ROW_3_793
*32522 TAP_TAPCELL_ROW_3_794
*32523 TAP_TAPCELL_ROW_3_795
*32524 TAP_TAPCELL_ROW_3_796
*32525 TAP_TAPCELL_ROW_3_797
*32526 TAP_TAPCELL_ROW_3_798
*32527 TAP_TAPCELL_ROW_3_799
*32528 TAP_TAPCELL_ROW_3_800
*32529 TAP_TAPCELL_ROW_3_801
*32530 TAP_TAPCELL_ROW_3_802
*32531 TAP_TAPCELL_ROW_3_803
*32532 TAP_TAPCELL_ROW_3_804
*32533 TAP_TAPCELL_ROW_3_805
*32534 TAP_TAPCELL_ROW_3_806
*32535 TAP_TAPCELL_ROW_3_807
*32536 TAP_TAPCELL_ROW_40_1_1210
*32537 TAP_TAPCELL_ROW_40_1_1211
*32538 TAP_TAPCELL_ROW_40_2_2011
*32539 TAP_TAPCELL_ROW_40_2_2012
*32540 TAP_TAPCELL_ROW_40_2_2013
*32541 TAP_TAPCELL_ROW_41_1_1212
*32542 TAP_TAPCELL_ROW_41_1_1213
*32543 TAP_TAPCELL_ROW_41_2_2014
*32544 TAP_TAPCELL_ROW_41_2_2015
*32545 TAP_TAPCELL_ROW_42_1_1214
*32546 TAP_TAPCELL_ROW_42_1_1215
*32547 TAP_TAPCELL_ROW_42_2_2016
*32548 TAP_TAPCELL_ROW_42_2_2017
*32549 TAP_TAPCELL_ROW_42_2_2018
*32550 TAP_TAPCELL_ROW_43_1_1216
*32551 TAP_TAPCELL_ROW_43_1_1217
*32552 TAP_TAPCELL_ROW_43_2_2019
*32553 TAP_TAPCELL_ROW_43_2_2020
*32554 TAP_TAPCELL_ROW_44_1_1218
*32555 TAP_TAPCELL_ROW_44_1_1219
*32556 TAP_TAPCELL_ROW_44_2_2021
*32557 TAP_TAPCELL_ROW_44_2_2022
*32558 TAP_TAPCELL_ROW_44_2_2023
*32559 TAP_TAPCELL_ROW_45_1_1220
*32560 TAP_TAPCELL_ROW_45_1_1221
*32561 TAP_TAPCELL_ROW_45_2_2024
*32562 TAP_TAPCELL_ROW_45_2_2025
*32563 TAP_TAPCELL_ROW_46_1_1222
*32564 TAP_TAPCELL_ROW_46_1_1223
*32565 TAP_TAPCELL_ROW_46_2_2026
*32566 TAP_TAPCELL_ROW_46_2_2027
*32567 TAP_TAPCELL_ROW_46_2_2028
*32568 TAP_TAPCELL_ROW_47_1_1224
*32569 TAP_TAPCELL_ROW_47_1_1225
*32570 TAP_TAPCELL_ROW_47_2_2029
*32571 TAP_TAPCELL_ROW_47_2_2030
*32572 TAP_TAPCELL_ROW_48_1_1226
*32573 TAP_TAPCELL_ROW_48_1_1227
*32574 TAP_TAPCELL_ROW_48_2_2031
*32575 TAP_TAPCELL_ROW_48_2_2032
*32576 TAP_TAPCELL_ROW_48_2_2033
*32577 TAP_TAPCELL_ROW_49_1_1228
*32578 TAP_TAPCELL_ROW_49_1_1229
*32579 TAP_TAPCELL_ROW_49_2_2034
*32580 TAP_TAPCELL_ROW_49_2_2035
*32581 TAP_TAPCELL_ROW_4_808
*32582 TAP_TAPCELL_ROW_4_809
*32583 TAP_TAPCELL_ROW_4_810
*32584 TAP_TAPCELL_ROW_4_811
*32585 TAP_TAPCELL_ROW_4_812
*32586 TAP_TAPCELL_ROW_4_813
*32587 TAP_TAPCELL_ROW_4_814
*32588 TAP_TAPCELL_ROW_4_815
*32589 TAP_TAPCELL_ROW_4_816
*32590 TAP_TAPCELL_ROW_4_817
*32591 TAP_TAPCELL_ROW_4_818
*32592 TAP_TAPCELL_ROW_4_819
*32593 TAP_TAPCELL_ROW_4_820
*32594 TAP_TAPCELL_ROW_4_821
*32595 TAP_TAPCELL_ROW_4_822
*32596 TAP_TAPCELL_ROW_4_823
*32597 TAP_TAPCELL_ROW_4_824
*32598 TAP_TAPCELL_ROW_4_825
*32599 TAP_TAPCELL_ROW_4_826
*32600 TAP_TAPCELL_ROW_4_827
*32601 TAP_TAPCELL_ROW_4_828
*32602 TAP_TAPCELL_ROW_4_829
*32603 TAP_TAPCELL_ROW_4_830
*32604 TAP_TAPCELL_ROW_4_831
*32605 TAP_TAPCELL_ROW_50_1_1230
*32606 TAP_TAPCELL_ROW_50_1_1231
*32607 TAP_TAPCELL_ROW_50_2_2036
*32608 TAP_TAPCELL_ROW_50_2_2037
*32609 TAP_TAPCELL_ROW_50_2_2038
*32610 TAP_TAPCELL_ROW_51_1_1232
*32611 TAP_TAPCELL_ROW_51_1_1233
*32612 TAP_TAPCELL_ROW_51_2_2039
*32613 TAP_TAPCELL_ROW_51_2_2040
*32614 TAP_TAPCELL_ROW_52_1_1234
*32615 TAP_TAPCELL_ROW_52_1_1235
*32616 TAP_TAPCELL_ROW_52_2_2041
*32617 TAP_TAPCELL_ROW_52_2_2042
*32618 TAP_TAPCELL_ROW_52_2_2043
*32619 TAP_TAPCELL_ROW_53_1_1236
*32620 TAP_TAPCELL_ROW_53_1_1237
*32621 TAP_TAPCELL_ROW_53_2_2044
*32622 TAP_TAPCELL_ROW_53_2_2045
*32623 TAP_TAPCELL_ROW_54_1_1238
*32624 TAP_TAPCELL_ROW_54_1_1239
*32625 TAP_TAPCELL_ROW_54_2_2046
*32626 TAP_TAPCELL_ROW_54_2_2047
*32627 TAP_TAPCELL_ROW_54_2_2048
*32628 TAP_TAPCELL_ROW_55_1_1240
*32629 TAP_TAPCELL_ROW_55_1_1241
*32630 TAP_TAPCELL_ROW_55_2_2049
*32631 TAP_TAPCELL_ROW_55_2_2050
*32632 TAP_TAPCELL_ROW_56_1_1242
*32633 TAP_TAPCELL_ROW_56_1_1243
*32634 TAP_TAPCELL_ROW_56_2_2051
*32635 TAP_TAPCELL_ROW_56_2_2052
*32636 TAP_TAPCELL_ROW_56_2_2053
*32637 TAP_TAPCELL_ROW_57_1_1244
*32638 TAP_TAPCELL_ROW_57_1_1245
*32639 TAP_TAPCELL_ROW_57_2_2054
*32640 TAP_TAPCELL_ROW_57_2_2055
*32641 TAP_TAPCELL_ROW_58_1_1246
*32642 TAP_TAPCELL_ROW_58_1_1247
*32643 TAP_TAPCELL_ROW_58_2_2056
*32644 TAP_TAPCELL_ROW_58_2_2057
*32645 TAP_TAPCELL_ROW_58_2_2058
*32646 TAP_TAPCELL_ROW_59_1_1248
*32647 TAP_TAPCELL_ROW_59_1_1249
*32648 TAP_TAPCELL_ROW_59_2_2059
*32649 TAP_TAPCELL_ROW_59_2_2060
*32650 TAP_TAPCELL_ROW_5_832
*32651 TAP_TAPCELL_ROW_5_833
*32652 TAP_TAPCELL_ROW_5_834
*32653 TAP_TAPCELL_ROW_5_835
*32654 TAP_TAPCELL_ROW_5_836
*32655 TAP_TAPCELL_ROW_5_837
*32656 TAP_TAPCELL_ROW_5_838
*32657 TAP_TAPCELL_ROW_5_839
*32658 TAP_TAPCELL_ROW_5_840
*32659 TAP_TAPCELL_ROW_5_841
*32660 TAP_TAPCELL_ROW_5_842
*32661 TAP_TAPCELL_ROW_5_843
*32662 TAP_TAPCELL_ROW_5_844
*32663 TAP_TAPCELL_ROW_5_845
*32664 TAP_TAPCELL_ROW_5_846
*32665 TAP_TAPCELL_ROW_5_847
*32666 TAP_TAPCELL_ROW_5_848
*32667 TAP_TAPCELL_ROW_5_849
*32668 TAP_TAPCELL_ROW_5_850
*32669 TAP_TAPCELL_ROW_5_851
*32670 TAP_TAPCELL_ROW_5_852
*32671 TAP_TAPCELL_ROW_5_853
*32672 TAP_TAPCELL_ROW_5_854
*32673 TAP_TAPCELL_ROW_5_855
*32674 TAP_TAPCELL_ROW_60_1_1250
*32675 TAP_TAPCELL_ROW_60_1_1251
*32676 TAP_TAPCELL_ROW_60_2_2061
*32677 TAP_TAPCELL_ROW_60_2_2062
*32678 TAP_TAPCELL_ROW_60_2_2063
*32679 TAP_TAPCELL_ROW_61_1_1252
*32680 TAP_TAPCELL_ROW_61_1_1253
*32681 TAP_TAPCELL_ROW_61_2_2064
*32682 TAP_TAPCELL_ROW_61_2_2065
*32683 TAP_TAPCELL_ROW_62_1_1254
*32684 TAP_TAPCELL_ROW_62_1_1255
*32685 TAP_TAPCELL_ROW_62_2_2066
*32686 TAP_TAPCELL_ROW_62_2_2067
*32687 TAP_TAPCELL_ROW_62_2_2068
*32688 TAP_TAPCELL_ROW_63_1_1256
*32689 TAP_TAPCELL_ROW_63_1_1257
*32690 TAP_TAPCELL_ROW_63_2_2069
*32691 TAP_TAPCELL_ROW_63_2_2070
*32692 TAP_TAPCELL_ROW_64_1_1258
*32693 TAP_TAPCELL_ROW_64_1_1259
*32694 TAP_TAPCELL_ROW_64_2_2071
*32695 TAP_TAPCELL_ROW_64_2_2072
*32696 TAP_TAPCELL_ROW_64_2_2073
*32697 TAP_TAPCELL_ROW_65_1_1260
*32698 TAP_TAPCELL_ROW_65_1_1261
*32699 TAP_TAPCELL_ROW_65_2_2074
*32700 TAP_TAPCELL_ROW_65_2_2075
*32701 TAP_TAPCELL_ROW_66_1_1262
*32702 TAP_TAPCELL_ROW_66_1_1263
*32703 TAP_TAPCELL_ROW_66_2_2076
*32704 TAP_TAPCELL_ROW_66_2_2077
*32705 TAP_TAPCELL_ROW_66_2_2078
*32706 TAP_TAPCELL_ROW_67_1_1264
*32707 TAP_TAPCELL_ROW_67_1_1265
*32708 TAP_TAPCELL_ROW_67_2_2079
*32709 TAP_TAPCELL_ROW_67_2_2080
*32710 TAP_TAPCELL_ROW_68_1_1266
*32711 TAP_TAPCELL_ROW_68_1_1267
*32712 TAP_TAPCELL_ROW_68_2_2081
*32713 TAP_TAPCELL_ROW_68_2_2082
*32714 TAP_TAPCELL_ROW_68_2_2083
*32715 TAP_TAPCELL_ROW_69_1_1268
*32716 TAP_TAPCELL_ROW_69_1_1269
*32717 TAP_TAPCELL_ROW_69_2_2084
*32718 TAP_TAPCELL_ROW_69_2_2085
*32719 TAP_TAPCELL_ROW_6_856
*32720 TAP_TAPCELL_ROW_6_857
*32721 TAP_TAPCELL_ROW_6_858
*32722 TAP_TAPCELL_ROW_6_859
*32723 TAP_TAPCELL_ROW_6_860
*32724 TAP_TAPCELL_ROW_6_861
*32725 TAP_TAPCELL_ROW_6_862
*32726 TAP_TAPCELL_ROW_6_863
*32727 TAP_TAPCELL_ROW_6_864
*32728 TAP_TAPCELL_ROW_6_865
*32729 TAP_TAPCELL_ROW_6_866
*32730 TAP_TAPCELL_ROW_6_867
*32731 TAP_TAPCELL_ROW_6_868
*32732 TAP_TAPCELL_ROW_6_869
*32733 TAP_TAPCELL_ROW_6_870
*32734 TAP_TAPCELL_ROW_6_871
*32735 TAP_TAPCELL_ROW_6_872
*32736 TAP_TAPCELL_ROW_6_873
*32737 TAP_TAPCELL_ROW_6_874
*32738 TAP_TAPCELL_ROW_6_875
*32739 TAP_TAPCELL_ROW_6_876
*32740 TAP_TAPCELL_ROW_6_877
*32741 TAP_TAPCELL_ROW_6_878
*32742 TAP_TAPCELL_ROW_6_879
*32743 TAP_TAPCELL_ROW_70_1_1270
*32744 TAP_TAPCELL_ROW_70_1_1271
*32745 TAP_TAPCELL_ROW_70_2_2086
*32746 TAP_TAPCELL_ROW_70_2_2087
*32747 TAP_TAPCELL_ROW_70_2_2088
*32748 TAP_TAPCELL_ROW_71_1_1272
*32749 TAP_TAPCELL_ROW_71_1_1273
*32750 TAP_TAPCELL_ROW_71_2_2089
*32751 TAP_TAPCELL_ROW_71_2_2090
*32752 TAP_TAPCELL_ROW_72_1_1274
*32753 TAP_TAPCELL_ROW_72_1_1275
*32754 TAP_TAPCELL_ROW_72_2_2091
*32755 TAP_TAPCELL_ROW_72_2_2092
*32756 TAP_TAPCELL_ROW_72_2_2093
*32757 TAP_TAPCELL_ROW_73_1_1276
*32758 TAP_TAPCELL_ROW_73_1_1277
*32759 TAP_TAPCELL_ROW_73_2_2094
*32760 TAP_TAPCELL_ROW_73_2_2095
*32761 TAP_TAPCELL_ROW_74_1_1278
*32762 TAP_TAPCELL_ROW_74_1_1279
*32763 TAP_TAPCELL_ROW_74_2_2096
*32764 TAP_TAPCELL_ROW_74_2_2097
*32765 TAP_TAPCELL_ROW_74_2_2098
*32766 TAP_TAPCELL_ROW_75_1_1280
*32767 TAP_TAPCELL_ROW_75_1_1281
*32768 TAP_TAPCELL_ROW_75_2_2099
*32769 TAP_TAPCELL_ROW_75_2_2100
*32770 TAP_TAPCELL_ROW_76_1_1282
*32771 TAP_TAPCELL_ROW_76_1_1283
*32772 TAP_TAPCELL_ROW_76_2_2101
*32773 TAP_TAPCELL_ROW_76_2_2102
*32774 TAP_TAPCELL_ROW_76_2_2103
*32775 TAP_TAPCELL_ROW_77_1_1284
*32776 TAP_TAPCELL_ROW_77_1_1285
*32777 TAP_TAPCELL_ROW_77_2_2104
*32778 TAP_TAPCELL_ROW_77_2_2105
*32779 TAP_TAPCELL_ROW_78_1_1286
*32780 TAP_TAPCELL_ROW_78_1_1287
*32781 TAP_TAPCELL_ROW_78_2_2106
*32782 TAP_TAPCELL_ROW_78_2_2107
*32783 TAP_TAPCELL_ROW_78_2_2108
*32784 TAP_TAPCELL_ROW_79_1_1288
*32785 TAP_TAPCELL_ROW_79_1_1289
*32786 TAP_TAPCELL_ROW_79_2_2109
*32787 TAP_TAPCELL_ROW_79_2_2110
*32788 TAP_TAPCELL_ROW_7_880
*32789 TAP_TAPCELL_ROW_7_881
*32790 TAP_TAPCELL_ROW_7_882
*32791 TAP_TAPCELL_ROW_7_883
*32792 TAP_TAPCELL_ROW_7_884
*32793 TAP_TAPCELL_ROW_7_885
*32794 TAP_TAPCELL_ROW_7_886
*32795 TAP_TAPCELL_ROW_7_887
*32796 TAP_TAPCELL_ROW_7_888
*32797 TAP_TAPCELL_ROW_7_889
*32798 TAP_TAPCELL_ROW_7_890
*32799 TAP_TAPCELL_ROW_7_891
*32800 TAP_TAPCELL_ROW_7_892
*32801 TAP_TAPCELL_ROW_7_893
*32802 TAP_TAPCELL_ROW_7_894
*32803 TAP_TAPCELL_ROW_7_895
*32804 TAP_TAPCELL_ROW_7_896
*32805 TAP_TAPCELL_ROW_7_897
*32806 TAP_TAPCELL_ROW_7_898
*32807 TAP_TAPCELL_ROW_7_899
*32808 TAP_TAPCELL_ROW_7_900
*32809 TAP_TAPCELL_ROW_7_901
*32810 TAP_TAPCELL_ROW_7_902
*32811 TAP_TAPCELL_ROW_7_903
*32812 TAP_TAPCELL_ROW_80_1_1290
*32813 TAP_TAPCELL_ROW_80_1_1291
*32814 TAP_TAPCELL_ROW_80_2_2111
*32815 TAP_TAPCELL_ROW_80_2_2112
*32816 TAP_TAPCELL_ROW_80_2_2113
*32817 TAP_TAPCELL_ROW_81_1_1292
*32818 TAP_TAPCELL_ROW_81_1_1293
*32819 TAP_TAPCELL_ROW_81_2_2114
*32820 TAP_TAPCELL_ROW_81_2_2115
*32821 TAP_TAPCELL_ROW_82_1_1294
*32822 TAP_TAPCELL_ROW_82_1_1295
*32823 TAP_TAPCELL_ROW_82_2_2116
*32824 TAP_TAPCELL_ROW_82_2_2117
*32825 TAP_TAPCELL_ROW_82_2_2118
*32826 TAP_TAPCELL_ROW_83_1_1296
*32827 TAP_TAPCELL_ROW_83_1_1297
*32828 TAP_TAPCELL_ROW_83_2_2119
*32829 TAP_TAPCELL_ROW_83_2_2120
*32830 TAP_TAPCELL_ROW_84_1_1298
*32831 TAP_TAPCELL_ROW_84_1_1299
*32832 TAP_TAPCELL_ROW_84_2_2121
*32833 TAP_TAPCELL_ROW_84_2_2122
*32834 TAP_TAPCELL_ROW_84_2_2123
*32835 TAP_TAPCELL_ROW_85_1_1300
*32836 TAP_TAPCELL_ROW_85_1_1301
*32837 TAP_TAPCELL_ROW_85_2_2124
*32838 TAP_TAPCELL_ROW_85_2_2125
*32839 TAP_TAPCELL_ROW_86_1_1302
*32840 TAP_TAPCELL_ROW_86_1_1303
*32841 TAP_TAPCELL_ROW_86_2_2126
*32842 TAP_TAPCELL_ROW_86_2_2127
*32843 TAP_TAPCELL_ROW_86_2_2128
*32844 TAP_TAPCELL_ROW_87_1_1304
*32845 TAP_TAPCELL_ROW_87_1_1305
*32846 TAP_TAPCELL_ROW_87_2_2129
*32847 TAP_TAPCELL_ROW_87_2_2130
*32848 TAP_TAPCELL_ROW_88_1_1306
*32849 TAP_TAPCELL_ROW_88_1_1307
*32850 TAP_TAPCELL_ROW_88_2_2131
*32851 TAP_TAPCELL_ROW_88_2_2132
*32852 TAP_TAPCELL_ROW_88_2_2133
*32853 TAP_TAPCELL_ROW_89_1_1308
*32854 TAP_TAPCELL_ROW_89_1_1309
*32855 TAP_TAPCELL_ROW_89_2_2134
*32856 TAP_TAPCELL_ROW_89_2_2135
*32857 TAP_TAPCELL_ROW_8_904
*32858 TAP_TAPCELL_ROW_8_905
*32859 TAP_TAPCELL_ROW_8_906
*32860 TAP_TAPCELL_ROW_8_907
*32861 TAP_TAPCELL_ROW_8_908
*32862 TAP_TAPCELL_ROW_8_909
*32863 TAP_TAPCELL_ROW_8_910
*32864 TAP_TAPCELL_ROW_8_911
*32865 TAP_TAPCELL_ROW_8_912
*32866 TAP_TAPCELL_ROW_8_913
*32867 TAP_TAPCELL_ROW_8_914
*32868 TAP_TAPCELL_ROW_8_915
*32869 TAP_TAPCELL_ROW_8_916
*32870 TAP_TAPCELL_ROW_8_917
*32871 TAP_TAPCELL_ROW_8_918
*32872 TAP_TAPCELL_ROW_8_919
*32873 TAP_TAPCELL_ROW_8_920
*32874 TAP_TAPCELL_ROW_8_921
*32875 TAP_TAPCELL_ROW_8_922
*32876 TAP_TAPCELL_ROW_8_923
*32877 TAP_TAPCELL_ROW_8_924
*32878 TAP_TAPCELL_ROW_8_925
*32879 TAP_TAPCELL_ROW_8_926
*32880 TAP_TAPCELL_ROW_8_927
*32881 TAP_TAPCELL_ROW_90_1_1310
*32882 TAP_TAPCELL_ROW_90_1_1311
*32883 TAP_TAPCELL_ROW_90_2_2136
*32884 TAP_TAPCELL_ROW_90_2_2137
*32885 TAP_TAPCELL_ROW_90_2_2138
*32886 TAP_TAPCELL_ROW_91_1_1312
*32887 TAP_TAPCELL_ROW_91_1_1313
*32888 TAP_TAPCELL_ROW_91_2_2139
*32889 TAP_TAPCELL_ROW_91_2_2140
*32890 TAP_TAPCELL_ROW_92_1_1314
*32891 TAP_TAPCELL_ROW_92_1_1315
*32892 TAP_TAPCELL_ROW_92_2_2141
*32893 TAP_TAPCELL_ROW_92_2_2142
*32894 TAP_TAPCELL_ROW_92_2_2143
*32895 TAP_TAPCELL_ROW_93_1_1316
*32896 TAP_TAPCELL_ROW_93_1_1317
*32897 TAP_TAPCELL_ROW_93_2_2144
*32898 TAP_TAPCELL_ROW_93_2_2145
*32899 TAP_TAPCELL_ROW_94_1_1318
*32900 TAP_TAPCELL_ROW_94_1_1319
*32901 TAP_TAPCELL_ROW_94_2_2146
*32902 TAP_TAPCELL_ROW_94_2_2147
*32903 TAP_TAPCELL_ROW_94_2_2148
*32904 TAP_TAPCELL_ROW_95_1_1320
*32905 TAP_TAPCELL_ROW_95_1_1321
*32906 TAP_TAPCELL_ROW_95_2_2149
*32907 TAP_TAPCELL_ROW_95_2_2150
*32908 TAP_TAPCELL_ROW_96_1_1322
*32909 TAP_TAPCELL_ROW_96_1_1323
*32910 TAP_TAPCELL_ROW_96_2_2151
*32911 TAP_TAPCELL_ROW_96_2_2152
*32912 TAP_TAPCELL_ROW_96_2_2153
*32913 TAP_TAPCELL_ROW_97_1_1324
*32914 TAP_TAPCELL_ROW_97_1_1325
*32915 TAP_TAPCELL_ROW_97_2_2154
*32916 TAP_TAPCELL_ROW_97_2_2155
*32917 TAP_TAPCELL_ROW_98_1_1326
*32918 TAP_TAPCELL_ROW_98_1_1327
*32919 TAP_TAPCELL_ROW_98_2_2156
*32920 TAP_TAPCELL_ROW_98_2_2157
*32921 TAP_TAPCELL_ROW_98_2_2158
*32922 TAP_TAPCELL_ROW_99_1_1328
*32923 TAP_TAPCELL_ROW_99_1_1329
*32924 TAP_TAPCELL_ROW_99_2_2159
*32925 TAP_TAPCELL_ROW_99_2_2160
*32926 TAP_TAPCELL_ROW_9_928
*32927 TAP_TAPCELL_ROW_9_929
*32928 TAP_TAPCELL_ROW_9_930
*32929 TAP_TAPCELL_ROW_9_931
*32930 TAP_TAPCELL_ROW_9_932
*32931 TAP_TAPCELL_ROW_9_933
*32932 TAP_TAPCELL_ROW_9_934
*32933 TAP_TAPCELL_ROW_9_935
*32934 TAP_TAPCELL_ROW_9_936
*32935 TAP_TAPCELL_ROW_9_937
*32936 TAP_TAPCELL_ROW_9_938
*32937 TAP_TAPCELL_ROW_9_939
*32938 TAP_TAPCELL_ROW_9_940
*32939 TAP_TAPCELL_ROW_9_941
*32940 TAP_TAPCELL_ROW_9_942
*32941 TAP_TAPCELL_ROW_9_943
*32942 TAP_TAPCELL_ROW_9_944
*32943 TAP_TAPCELL_ROW_9_945
*32944 TAP_TAPCELL_ROW_9_946
*32945 TAP_TAPCELL_ROW_9_947
*32946 TAP_TAPCELL_ROW_9_948
*32947 TAP_TAPCELL_ROW_9_949
*32948 TAP_TAPCELL_ROW_9_950
*32949 TAP_TAPCELL_ROW_9_951
*32950 _19_
*32951 _20_
*32952 _21_
*32953 _22_
*32954 _23_
*32955 _24_
*32956 _25_
*32957 _26_
*32958 _27_
*32959 _28_
*32960 _29_
*32961 _30_
*32962 _31_
*32963 _32_
*32964 _33_
*32965 _34_
*32966 _35_
*32967 _36_
*32968 _37_
*32969 _38_
*32970 _39_
*32971 _40_
*32972 _41_
*32973 _42_
*32974 _43_
*32975 _44_
*32976 _45_
*32977 _46_
*32978 _47_
*32979 _48_
*32980 _49_
*32981 _50_
*32982 _51_
*32983 _52_
*32984 _53_
*32985 _54_
*32986 _55_
*32987 _56_
*32988 _57_
*32989 _58_
*32990 _59_
*32991 _60_
*32992 _61_
*32993 _62_
*32994 clkbuf_0_clk_i
*32995 clkbuf_0_clk_i_regs
*32996 clkbuf_1_0__f_clk_i
*32997 clkbuf_1_0__f_clk_i_regs
*32998 clkbuf_1_1__f_clk_i
*32999 clkbuf_1_1__f_clk_i_regs
*33000 clkbuf_regs_0_clk_i
*33001 clkload0
*33002 hold1
*33003 hold2
*33004 hold3
*33005 u_sram

*PORTS
axi_araddr_i[0] I
axi_araddr_i[10] I
axi_araddr_i[11] I
axi_araddr_i[12] I
axi_araddr_i[13] I
axi_araddr_i[14] I
axi_araddr_i[15] I
axi_araddr_i[16] I
axi_araddr_i[17] I
axi_araddr_i[18] I
axi_araddr_i[19] I
axi_araddr_i[1] I
axi_araddr_i[20] I
axi_araddr_i[21] I
axi_araddr_i[22] I
axi_araddr_i[23] I
axi_araddr_i[24] I
axi_araddr_i[25] I
axi_araddr_i[26] I
axi_araddr_i[27] I
axi_araddr_i[28] I
axi_araddr_i[29] I
axi_araddr_i[2] I
axi_araddr_i[30] I
axi_araddr_i[31] I
axi_araddr_i[3] I
axi_araddr_i[4] I
axi_araddr_i[5] I
axi_araddr_i[6] I
axi_araddr_i[7] I
axi_araddr_i[8] I
axi_araddr_i[9] I
axi_arprot_i[0] I
axi_arprot_i[1] I
axi_arprot_i[2] I
axi_arready_o O
axi_arvalid_i I
axi_awaddr_i[0] I
axi_awaddr_i[10] I
axi_awaddr_i[11] I
axi_awaddr_i[12] I
axi_awaddr_i[13] I
axi_awaddr_i[14] I
axi_awaddr_i[15] I
axi_awaddr_i[16] I
axi_awaddr_i[17] I
axi_awaddr_i[18] I
axi_awaddr_i[19] I
axi_awaddr_i[1] I
axi_awaddr_i[20] I
axi_awaddr_i[21] I
axi_awaddr_i[22] I
axi_awaddr_i[23] I
axi_awaddr_i[24] I
axi_awaddr_i[25] I
axi_awaddr_i[26] I
axi_awaddr_i[27] I
axi_awaddr_i[28] I
axi_awaddr_i[29] I
axi_awaddr_i[2] I
axi_awaddr_i[30] I
axi_awaddr_i[31] I
axi_awaddr_i[3] I
axi_awaddr_i[4] I
axi_awaddr_i[5] I
axi_awaddr_i[6] I
axi_awaddr_i[7] I
axi_awaddr_i[8] I
axi_awaddr_i[9] I
axi_awprot_i[0] I
axi_awprot_i[1] I
axi_awprot_i[2] I
axi_awready_o O
axi_awvalid_i I
axi_bready_i I
axi_bresp_o[0] O
axi_bresp_o[1] O
axi_bvalid_o O
axi_rdata_o[0] O
axi_rdata_o[10] O
axi_rdata_o[11] O
axi_rdata_o[12] O
axi_rdata_o[13] O
axi_rdata_o[14] O
axi_rdata_o[15] O
axi_rdata_o[16] O
axi_rdata_o[17] O
axi_rdata_o[18] O
axi_rdata_o[19] O
axi_rdata_o[1] O
axi_rdata_o[20] O
axi_rdata_o[21] O
axi_rdata_o[22] O
axi_rdata_o[23] O
axi_rdata_o[24] O
axi_rdata_o[25] O
axi_rdata_o[26] O
axi_rdata_o[27] O
axi_rdata_o[28] O
axi_rdata_o[29] O
axi_rdata_o[2] O
axi_rdata_o[30] O
axi_rdata_o[31] O
axi_rdata_o[3] O
axi_rdata_o[4] O
axi_rdata_o[5] O
axi_rdata_o[6] O
axi_rdata_o[7] O
axi_rdata_o[8] O
axi_rdata_o[9] O
axi_rready_i I
axi_rresp_o[0] O
axi_rresp_o[1] O
axi_rvalid_o O
axi_wdata_i[0] I
axi_wdata_i[10] I
axi_wdata_i[11] I
axi_wdata_i[12] I
axi_wdata_i[13] I
axi_wdata_i[14] I
axi_wdata_i[15] I
axi_wdata_i[16] I
axi_wdata_i[17] I
axi_wdata_i[18] I
axi_wdata_i[19] I
axi_wdata_i[1] I
axi_wdata_i[20] I
axi_wdata_i[21] I
axi_wdata_i[22] I
axi_wdata_i[23] I
axi_wdata_i[24] I
axi_wdata_i[25] I
axi_wdata_i[26] I
axi_wdata_i[27] I
axi_wdata_i[28] I
axi_wdata_i[29] I
axi_wdata_i[2] I
axi_wdata_i[30] I
axi_wdata_i[31] I
axi_wdata_i[3] I
axi_wdata_i[4] I
axi_wdata_i[5] I
axi_wdata_i[6] I
axi_wdata_i[7] I
axi_wdata_i[8] I
axi_wdata_i[9] I
axi_wready_o O
axi_wstrb_i[0] I
axi_wstrb_i[1] I
axi_wstrb_i[2] I
axi_wstrb_i[3] I
axi_wvalid_i I
clk_i I
rst_ni I

*D_NET *25 0.00591115
*CONN
*P axi_araddr_i[2] I
*I *32963:A1 I *D sky130_fd_sc_hd__a32o_2
*CAP
1 axi_araddr_i[2] 0.00286229
2 *32963:A1 0
3 *25:9 0.00286229
4 *25:9 *32963:B2 2.75145e-05
5 *25:9 *75:57 5.348e-05
6 *25:9 *75:70 0.000105583
*RES
1 axi_araddr_i[2] *25:9 49.655 
2 *25:9 *32963:A1 1.6 
*END

*D_NET *28 0.00452399
*CONN
*P axi_araddr_i[3] I
*I *32964:A1 I *D sky130_fd_sc_hd__a32o_2
*CAP
1 axi_araddr_i[3] 0.0011722
2 *32964:A1 0.0011722
3 *32964:A1 axi_arready_o 0.000169736
4 *32964:A1 *32964:B2 0.0015641
5 *32964:A1 *76:9 0.000325091
6 *32964:A1 *164:31 0.000120655
*RES
1 axi_araddr_i[3] *32964:A1 22.9634 
*END

*D_NET *29 0.00374079
*CONN
*P axi_araddr_i[4] I
*I *32965:A1 I *D sky130_fd_sc_hd__a32o_2
*CAP
1 axi_araddr_i[4] 0.00140495
2 *32965:A1 0.00140495
3 *32965:A1 *32964:B2 0.000306447
4 *32965:A1 *32965:B2 0.000288083
5 *32965:A1 *32966:B2 0.000326427
6 *32965:A1 *154:9 9.93012e-06
*RES
1 axi_araddr_i[4] *32965:A1 22.7534 
*END

*D_NET *30 0.00356975
*CONN
*P axi_araddr_i[5] I
*I *32966:A1 I *D sky130_fd_sc_hd__a32o_2
*CAP
1 axi_araddr_i[5] 0.00160476
2 *32966:A1 0.00160476
3 *32966:A1 *32967:A1 0.000347025
4 *32966:A1 *32967:B2 1.32141e-05
5 *32966:A1 *32968:A1 0
*RES
1 axi_araddr_i[5] *32966:A1 20.3534 
*END

*D_NET *31 0.00344286
*CONN
*P axi_araddr_i[6] I
*I *32967:A1 I *D sky130_fd_sc_hd__a32o_2
*CAP
1 axi_araddr_i[6] 0.00139308
2 *32967:A1 0.00139308
3 *32967:A1 *32967:B2 0.000309675
4 *32966:A1 *32967:A1 0.000347025
*RES
1 axi_araddr_i[6] *32967:A1 23.0401 
*END

*D_NET *32 0.00453739
*CONN
*P axi_araddr_i[7] I
*I *32968:A1 I *D sky130_fd_sc_hd__a32o_2
*CAP
1 axi_araddr_i[7] 0.00115684
2 *32968:A1 0.00115684
3 *32968:A1 *32967:B2 0
4 *32968:A1 *32968:B2 0.00192686
5 *32968:A1 *75:154 4.04634e-05
6 *32968:A1 *75:165 4.36878e-05
7 *32968:A1 *164:77 1.92979e-05
8 *32968:A1 *164:86 7.35685e-05
9 *32968:A1 *165:6 0.000119831
10 *32966:A1 *32968:A1 0
*RES
1 axi_araddr_i[7] *32968:A1 8.59097 
*END

*D_NET *33 0.00373
*CONN
*P axi_araddr_i[8] I
*I *32969:A1 I *D sky130_fd_sc_hd__a32o_2
*CAP
1 axi_araddr_i[8] 0.00128701
2 *32969:A1 0.00128701
3 *32969:A1 *32962:A3 0.000158681
4 *32969:A1 *32962:B1 8.52845e-05
5 *32969:A1 *32969:B2 0.000329954
6 *32969:A1 *32976:D 0.000331597
7 *32969:A1 *165:25 0.00014785
8 *32969:A1 *200:20 0.000102611
*RES
1 axi_araddr_i[8] *32969:A1 23.1134 
*END

*D_NET *34 0.0044096
*CONN
*P axi_araddr_i[9] I
*I *32970:A1 I *D sky130_fd_sc_hd__a32o_2
*CAP
1 axi_araddr_i[9] 0.00111259
2 *32970:A1 0.00111259
3 *32970:A1 *32961:B2 0.000103559
4 *32970:A1 *32969:B2 0.00023371
5 *32970:A1 *32970:B2 0.00156233
6 *32970:A1 *77:9 9.70043e-06
7 *32970:A1 *113:9 0.000275125
*RES
1 axi_araddr_i[9] *32970:A1 24.6018 
*END

*D_NET *38 0.00139121
*CONN
*P axi_arready_o O
*I *32957:X O *D sky130_fd_sc_hd__and2_2
*CAP
1 axi_arready_o 0.000610739
2 *32957:X 0.000610739
3 *32964:A1 axi_arready_o 0.000169736
*RES
1 *32957:X axi_arready_o 9.3451 
*END

*D_NET *39 0.00226686
*CONN
*P axi_arvalid_i I
*I *32952:A I *D sky130_fd_sc_hd__inv_2
*I *32956:B I *D sky130_fd_sc_hd__and2_2
*CAP
1 axi_arvalid_i 0.000444187
2 *32952:A 0.000181163
3 *32956:B 0.000172067
4 *39:7 0.000797417
5 *32952:A *200:24 0
6 *32956:B *32956:A 8.64421e-05
7 *32956:B *200:24 0
8 *39:7 *32968:B2 0.000585582
*RES
1 axi_arvalid_i *39:7 2.02507 
2 *39:7 *32956:B 6.3375 
3 *39:7 *32952:A 6.6375 
*END

*D_NET *62 0.0052769
*CONN
*P axi_awaddr_i[2] I
*I *32963:B2 I *D sky130_fd_sc_hd__a32o_2
*CAP
1 axi_awaddr_i[2] 0.00260055
2 *32963:B2 0.00260055
3 *32963:B2 *75:70 4.82863e-05
4 *25:9 *32963:B2 2.75145e-05
*RES
1 axi_awaddr_i[2] *32963:B2 47.985 
*END

*D_NET *65 0.00460088
*CONN
*P axi_awaddr_i[3] I
*I *32964:B2 I *D sky130_fd_sc_hd__a32o_2
*CAP
1 axi_awaddr_i[3] 0.000702713
2 *32964:B2 0.000702713
3 *32964:B2 *32957:A 4.77757e-05
4 *32964:B2 *32964:B1 1.86443e-05
5 *32964:B2 *154:9 0.000305205
6 *32964:B2 *164:31 0.00095328
7 *32964:A1 *32964:B2 0.0015641
8 *32965:A1 *32964:B2 0.000306447
*RES
1 axi_awaddr_i[3] *32964:B2 23.6701 
*END

*D_NET *66 0.00481295
*CONN
*P axi_awaddr_i[4] I
*I *32965:B2 I *D sky130_fd_sc_hd__a32o_2
*CAP
1 axi_awaddr_i[4] 0.000743247
2 *32965:B2 0.000743247
3 *32965:B2 *32966:B2 0.00111561
4 *32965:B2 *32967:B2 0.00192276
5 *32965:A1 *32965:B2 0.000288083
*RES
1 axi_awaddr_i[4] *32965:B2 8.05903 
*END

*D_NET *67 0.00478261
*CONN
*P axi_awaddr_i[5] I
*I *32966:B2 I *D sky130_fd_sc_hd__a32o_2
*CAP
1 axi_awaddr_i[5] 0.00138371
2 *32966:B2 0.00138371
3 *32966:B2 *32967:B2 0.000173916
4 *32966:B2 *75:8 0.000202805
5 *32966:B2 *75:10 2.09665e-05
6 *32966:B2 *75:121 7.08853e-05
7 *32966:B2 *75:132 0.000100136
8 *32966:B2 *75:143 4.43871e-06
9 *32966:B2 *76:9 0
10 *32966:B2 *154:9 0
11 *32965:A1 *32966:B2 0.000326427
12 *32965:B2 *32966:B2 0.00111561
*RES
1 axi_awaddr_i[5] *32966:B2 12.1136 
*END

*D_NET *68 0.00482089
*CONN
*P axi_awaddr_i[6] I
*I *32967:B2 I *D sky130_fd_sc_hd__a32o_2
*CAP
1 axi_awaddr_i[6] 0.00113984
2 *32967:B2 0.00113984
3 *32967:B2 *33005:addr0[3] 6.74079e-05
4 *32967:B2 *75:143 5.4239e-05
5 *32965:B2 *32967:B2 0.00192276
6 *32966:A1 *32967:B2 1.32141e-05
7 *32966:B2 *32967:B2 0.000173916
8 *32967:A1 *32967:B2 0.000309675
9 *32968:A1 *32967:B2 0
*RES
1 axi_awaddr_i[6] *32967:B2 11.2119 
*END

*D_NET *69 0.00414435
*CONN
*P axi_awaddr_i[7] I
*I *32968:B2 I *D sky130_fd_sc_hd__a32o_2
*CAP
1 axi_awaddr_i[7] 0.000807822
2 *32968:B2 0.000807822
3 *32968:B2 *33005:addr0[3] 1.00941e-05
4 *32968:B2 *75:165 6.16226e-06
5 *32968:A1 *32968:B2 0.00192686
6 *39:7 *32968:B2 0.000585582
*RES
1 axi_awaddr_i[7] *32968:B2 7.8969 
*END

*D_NET *70 0.0045359
*CONN
*P axi_awaddr_i[8] I
*I *32969:B2 I *D sky130_fd_sc_hd__a32o_2
*CAP
1 axi_awaddr_i[8] 0.00176966
2 *32969:B2 0.00176966
3 *32969:B2 *32970:B2 0.00022507
4 *32969:B2 *33005:addr0[3] 0.000122362
5 *32969:B2 *75:165 1.22676e-05
6 *32969:B2 *75:176 7.32219e-05
7 *32969:B2 *113:9 0
8 *32969:A1 *32969:B2 0.000329954
9 *32970:A1 *32969:B2 0.00023371
*RES
1 axi_awaddr_i[8] *32969:B2 10.4402 
*END

*D_NET *71 0.0044569
*CONN
*P axi_awaddr_i[9] I
*I *32970:B2 I *D sky130_fd_sc_hd__a32o_2
*CAP
1 axi_awaddr_i[9] 0.00106458
2 *32970:B2 0.00106458
3 *32970:B2 axi_awready_o 0.000217147
4 *32970:B2 *32961:B2 4.34855e-05
5 *32970:B2 *32970:B1 1.86443e-05
6 *32970:B2 *77:9 0.000261062
7 *32969:B2 *32970:B2 0.00022507
8 *32970:A1 *32970:B2 0.00156233
*RES
1 axi_awaddr_i[9] *32970:B2 26.7786 
*END

*D_NET *75 0.0451071
*CONN
*P axi_awready_o O
*I *32959:B1 I *D sky130_fd_sc_hd__a21o_2
*I *32970:B1 I *D sky130_fd_sc_hd__a32o_2
*I *32969:B1 I *D sky130_fd_sc_hd__a32o_2
*I *32968:B1 I *D sky130_fd_sc_hd__a32o_2
*I *32967:B1 I *D sky130_fd_sc_hd__a32o_2
*I *32966:B1 I *D sky130_fd_sc_hd__a32o_2
*I *32965:B1 I *D sky130_fd_sc_hd__a32o_2
*I *32964:B1 I *D sky130_fd_sc_hd__a32o_2
*I *32960:A I *D sky130_fd_sc_hd__nor2_2
*I *32955:A I *D sky130_fd_sc_hd__inv_2
*I *32974:B I *D sky130_fd_sc_hd__and2_2
*I *32973:B I *D sky130_fd_sc_hd__and2_2
*I *32972:B I *D sky130_fd_sc_hd__and2_2
*I *32971:B I *D sky130_fd_sc_hd__and2_2
*I *32963:B1 I *D sky130_fd_sc_hd__a32o_2
*I *32993:A I *D sky130_fd_sc_hd__buf_2
*I *32954:X O *D sky130_fd_sc_hd__and3_2
*CAP
1 axi_awready_o 0.000809105
2 *32959:B1 2.08101e-05
3 *32970:B1 1.04497e-05
4 *32969:B1 9.61745e-06
5 *32968:B1 1.50656e-05
6 *32967:B1 1.38101e-05
7 *32966:B1 1.50656e-05
8 *32965:B1 1.38101e-05
9 *32964:B1 1.04497e-05
10 *32960:A 0
11 *32955:A 3.5419e-05
12 *32974:B 5.47867e-05
13 *32973:B 0
14 *32972:B 0
15 *32971:B 0
16 *32963:B1 0
17 *32993:A 0.000838526
18 *32954:X 0.000922193
19 *75:191 0.00132167
20 *75:176 0.000672208
21 *75:165 0.0004509
22 *75:154 0.000382391
23 *75:143 0.000195675
24 *75:132 0.0001625
25 *75:121 0.000149952
26 *75:84 0.00018632
27 *75:77 0.000327819
28 *75:70 0.00214215
29 *75:57 0.00329274
30 *75:51 0.00272183
31 *75:47 0.00157029
32 *75:39 0.00128652
33 *75:33 0.00314188
34 *75:14 0.00384834
35 *75:10 0.00113513
36 *75:8 0.00112686
37 axi_awready_o axi_rvalid_o 0.000235927
38 axi_awready_o *32959:A1 3.45588e-05
39 axi_awready_o *32961:A2 9.64366e-05
40 axi_awready_o *32961:B2 0.000391808
41 axi_awready_o *32962:B1 7.08493e-05
42 axi_awready_o *77:9 0.000166425
43 *32955:A *33005:web0 5.83121e-06
44 *32969:B1 *32976:D 1.4208e-05
45 *32974:B *32973:A 0.000124895
46 *32974:B *33005:wmask0[1] 0.000152858
47 *32974:B *33005:wmask0[2] 0.000394699
48 *32993:A *164:35 7.70938e-05
49 *75:8 *32954:B 3.66913e-05
50 *75:10 *164:50 0.000133245
51 *75:14 *164:35 0.00111288
52 *75:14 *164:50 2.7881e-05
53 *75:39 *165:74 0.00129886
54 *75:39 *165:78 4.43871e-06
55 *75:47 *33005:csb0 0.000342942
56 *75:47 *165:78 0.00033441
57 *75:51 *33005:csb0 0.00114223
58 *75:51 *165:78 0.00374004
59 *75:57 *32963:A2 0.00288447
60 *75:70 *33005:addr0[0] 0.00186599
61 *75:77 *33005:wmask0[0] 0.000237301
62 *75:84 *33005:wmask0[0] 0.000391497
63 *75:84 *33005:wmask0[1] 0.000398505
64 *75:84 *33005:wmask0[2] 8.8266e-05
65 *75:121 *164:50 3.4222e-05
66 *75:121 *164:59 3.70758e-05
67 *75:132 *164:59 8.56938e-05
68 *75:132 *164:68 1.89685e-05
69 *75:143 *33005:addr0[3] 0
70 *75:143 *164:68 5.92191e-05
71 *75:143 *164:77 4.31921e-05
72 *75:154 *33005:addr0[3] 0
73 *75:154 *164:77 7.46188e-05
74 *75:165 *32970:A2 5.53249e-06
75 *75:165 *33005:addr0[3] 0
76 *75:165 *164:86 0.000162184
77 *75:165 *164:116 0.000113972
78 *75:176 *32970:A2 0.000156687
79 *75:176 *32970:A3 1.73877e-05
80 *75:176 *33005:addr0[3] 0
81 *75:176 *33005:addr0[5] 0
82 *75:191 *32959:A1 2.96426e-05
83 *75:191 *32977:D 0.000488099
84 *75:191 *33005:addr0[5] 0
85 *32963:B2 *75:70 4.82863e-05
86 *32964:B2 *32964:B1 1.86443e-05
87 *32966:B2 *75:8 0.000202805
88 *32966:B2 *75:10 2.09665e-05
89 *32966:B2 *75:121 7.08853e-05
90 *32966:B2 *75:132 0.000100136
91 *32966:B2 *75:143 4.43871e-06
92 *32967:B2 *75:143 5.4239e-05
93 *32968:A1 *75:154 4.04634e-05
94 *32968:A1 *75:165 4.36878e-05
95 *32968:B2 *75:165 6.16226e-06
96 *32969:B2 *75:165 1.22676e-05
97 *32969:B2 *75:176 7.32219e-05
98 *32970:B2 axi_awready_o 0.000217147
99 *32970:B2 *32970:B1 1.86443e-05
100 *25:9 *75:57 5.348e-05
101 *25:9 *75:70 0.000105583
*RES
1 *32954:X *75:8 13.71 
2 *75:8 *75:10 2.91 
3 *75:10 *75:14 25.055 
4 *75:14 *32993:A 17.795 
5 *75:14 *75:33 24.185 
6 *75:33 *75:39 28.565 
7 *75:39 *75:47 7.085 
8 *75:47 *75:51 44.435 
9 *75:51 *75:57 27.465 
10 *75:57 *32963:B1 1.6 
11 *75:57 *75:70 45.79 
12 *75:70 *32971:B 1.6 
13 *75:70 *75:77 4.245 
14 *75:77 *32972:B 1.6 
15 *75:77 *75:84 6.66 
16 *75:84 *32973:B 1.6 
17 *75:84 *32974:B 5.155 
18 *75:47 *32955:A 4.05 
19 *75:39 *32960:A 1.6 
20 *75:10 *32964:B1 3.78 
21 *75:8 *75:121 1.635 
22 *75:121 *32965:B1 3.765 
23 *75:121 *75:132 2.145 
24 *75:132 *32966:B1 3.78 
25 *75:132 *75:143 2.145 
26 *75:143 *32967:B1 3.765 
27 *75:143 *75:154 2.145 
28 *75:154 *32968:B1 3.78 
29 *75:154 *75:165 6.225 
30 *75:165 *32969:B1 3.765 
31 *75:165 *75:176 3.93 
32 *75:176 *32970:B1 3.78 
33 *75:176 *75:191 12.185 
34 *75:191 axi_awready_o 17.4103 
35 *75:191 *32959:B1 1.96 
*END

*D_NET *76 0.00250369
*CONN
*P axi_awvalid_i I
*I *32954:A I *D sky130_fd_sc_hd__and3_2
*I *32953:A I *D sky130_fd_sc_hd__nand2_2
*CAP
1 axi_awvalid_i 0.00043799
2 *32954:A 0.000167133
3 *32953:A 0
4 *76:9 0.000605123
5 *32954:A *32954:B 0
6 *32954:A *32954:C 0.000210226
7 *32954:A *32957:A 3.25831e-05
8 *76:9 *32954:C 5.18317e-06
9 *76:9 *32957:A 0.000147781
10 *76:9 *154:9 0.000572579
11 *32964:A1 *76:9 0.000325091
12 *32966:B2 *76:9 0
*RES
1 axi_awvalid_i *76:9 3.78757 
2 *76:9 *32953:A 3.6 
3 *76:9 *32954:A 6.705 
*END

*D_NET *77 0.00304909
*CONN
*P axi_bready_i I
*I *32951:A I *D sky130_fd_sc_hd__inv_2
*I *32961:B2 I *D sky130_fd_sc_hd__a22o_2
*CAP
1 axi_bready_i 0.000216987
2 *32951:A 0.000245801
3 *32961:B2 0.00012203
4 *77:9 0.000584817
5 *32951:A *32950:A 0.000351834
6 *32951:A *32958:A2 4.60061e-05
7 *32961:B2 *32950:A 0.000133205
8 *32961:B2 *32961:A2 0.000353504
9 *32961:B2 *113:9 1.88656e-05
10 *77:9 axi_rvalid_o 0
11 axi_awready_o *32961:B2 0.000391808
12 axi_awready_o *77:9 0.000166425
13 *32970:A1 *32961:B2 0.000103559
14 *32970:A1 *77:9 9.70043e-06
15 *32970:B2 *32961:B2 4.34855e-05
16 *32970:B2 *77:9 0.000261062
*RES
1 axi_bready_i *77:9 2.5201 
2 *77:9 *32961:B2 9.3 
3 *77:9 *32951:A 8.55 
*END

*D_NET *78 0.0014546
*CONN
*P axi_bresp_o[0] O
*I *32989:LO O *D sky130_fd_sc_hd__conb_1
*CAP
1 axi_bresp_o[0] 0.000727301
2 *32989:LO 0.000727301
3 axi_bresp_o[0] axi_rresp_o[1] 0
*RES
1 *32989:LO axi_bresp_o[0] 6.12357 
*END

*D_NET *79 0.00138426
*CONN
*P axi_bresp_o[1] O
*I *32990:LO O *D sky130_fd_sc_hd__conb_1
*CAP
1 axi_bresp_o[1] 0.00069213
2 *32990:LO 0.00069213
*RES
1 *32990:LO axi_bresp_o[1] 6.3853 
*END

*D_NET *80 0.00616864
*CONN
*P axi_bvalid_o O
*I *32961:B1 I *D sky130_fd_sc_hd__a22o_2
*I *33004:A I *D sky130_fd_sc_hd__dlygate4sd3_1
*I *32977:Q O *D sky130_fd_sc_hd__dfrtp_2
*CAP
1 axi_bvalid_o 0.000654793
2 *32961:B1 0.000264167
3 *33004:A 0.00119338
4 *32977:Q 0.000665641
5 *80:26 0.0014467
6 axi_bvalid_o axi_rvalid_o 3.97748e-05
7 axi_bvalid_o *32979:RESET_B 0.000563235
8 *32961:B1 axi_rvalid_o 0.000105098
9 *32961:B1 *32961:A1 0.000392889
10 *33004:A *32979:RESET_B 0
11 *33004:A *33003:A 6.9451e-05
12 *33004:A *33005:addr0[6] 0
13 *33004:A *116:12 0
14 *80:26 *200:20 0.000773501
*RES
1 *32977:Q *33004:A 18.33 
2 *33004:A *80:26 14.055 
3 *80:26 *32961:B1 9.57 
4 *80:26 axi_bvalid_o 5.5143 
*END

*D_NET *81 0.00826152
*CONN
*P axi_rdata_o[0] O
*I *33005:dout0[0] O *D sky130_sram_1kbyte_1rw1r_32x256_8
*CAP
1 axi_rdata_o[0] 0.00313592
2 *33005:dout0[0] 0.00313592
3 axi_rdata_o[0] axi_rdata_o[1] 0
4 axi_rdata_o[0] *33005:din0[5] 6.54202e-05
5 axi_rdata_o[0] *33005:din0[6] 0.000121068
6 axi_rdata_o[0] *144:5 0
7 axi_rdata_o[0] *145:5 0.00180318
*RES
1 *33005:dout0[0] axi_rdata_o[0] 14.15 
*END

*D_NET *82 0.00900879
*CONN
*P axi_rdata_o[10] O
*I *33005:dout0[10] O *D sky130_sram_1kbyte_1rw1r_32x256_8
*CAP
1 axi_rdata_o[10] 0.00312022
2 *33005:dout0[10] 0.00312022
3 axi_rdata_o[10] axi_rdata_o[11] 0
4 axi_rdata_o[10] axi_rdata_o[9] 0
5 axi_rdata_o[10] *33005:din0[16] 0.000116578
6 axi_rdata_o[10] *33005:din0[17] 6.89441e-05
7 axi_rdata_o[10] *124:5 0.00129142
8 axi_rdata_o[10] *125:5 0.00129142
*RES
1 *33005:dout0[10] axi_rdata_o[10] 14.0942 
*END

*D_NET *83 0.00775631
*CONN
*P axi_rdata_o[11] O
*I *33005:dout0[11] O *D sky130_sram_1kbyte_1rw1r_32x256_8
*CAP
1 axi_rdata_o[11] 0.00313779
2 *33005:dout0[11] 0.00313779
3 axi_rdata_o[11] axi_rdata_o[12] 0
4 axi_rdata_o[11] *33005:din0[17] 8.93491e-05
5 axi_rdata_o[11] *33005:din0[18] 9.34693e-05
6 axi_rdata_o[11] *125:5 0
7 axi_rdata_o[11] *126:5 0.00129792
8 axi_rdata_o[10] axi_rdata_o[11] 0
*RES
1 *33005:dout0[11] axi_rdata_o[11] 14.1348 
*END

*D_NET *84 0.00774487
*CONN
*P axi_rdata_o[12] O
*I *33005:dout0[12] O *D sky130_sram_1kbyte_1rw1r_32x256_8
*CAP
1 axi_rdata_o[12] 0.00315749
2 *33005:dout0[12] 0.00315749
3 axi_rdata_o[12] axi_rdata_o[13] 0
4 axi_rdata_o[12] *33005:din0[18] 6.54202e-05
5 axi_rdata_o[12] *33005:din0[19] 6.65476e-05
6 axi_rdata_o[12] *126:5 0
7 axi_rdata_o[12] *127:5 0.00129792
8 axi_rdata_o[11] axi_rdata_o[12] 0
*RES
1 *33005:dout0[12] axi_rdata_o[12] 14.0816 
*END

*D_NET *85 0.00769225
*CONN
*P axi_rdata_o[13] O
*I *33005:dout0[13] O *D sky130_sram_1kbyte_1rw1r_32x256_8
*CAP
1 axi_rdata_o[13] 0.00315043
2 *33005:dout0[13] 0.00315043
3 axi_rdata_o[13] axi_rdata_o[14] 0
4 axi_rdata_o[13] *33005:din0[19] 0
5 axi_rdata_o[13] *33005:din0[20] 9.34693e-05
6 axi_rdata_o[13] *127:5 0
7 axi_rdata_o[13] *129:5 0.00129792
8 axi_rdata_o[12] axi_rdata_o[13] 0
*RES
1 *33005:dout0[13] axi_rdata_o[13] 14.0993 
*END

*D_NET *86 0.00825478
*CONN
*P axi_rdata_o[14] O
*I *33005:dout0[14] O *D sky130_sram_1kbyte_1rw1r_32x256_8
*CAP
1 axi_rdata_o[14] 0.00313255
2 *33005:dout0[14] 0.00313255
3 axi_rdata_o[14] axi_rdata_o[15] 0
4 axi_rdata_o[14] *33005:din0[20] 6.54202e-05
5 axi_rdata_o[14] *33005:din0[21] 0.000121068
6 axi_rdata_o[14] *129:5 0
7 axi_rdata_o[14] *130:5 0.00180318
8 axi_rdata_o[13] axi_rdata_o[14] 0
*RES
1 *33005:dout0[14] axi_rdata_o[14] 14.1398 
*END

*D_NET *87 0.00777007
*CONN
*P axi_rdata_o[15] O
*I *33005:dout0[15] O *D sky130_sram_1kbyte_1rw1r_32x256_8
*CAP
1 axi_rdata_o[15] 0.00314283
2 *33005:dout0[15] 0.00314283
3 axi_rdata_o[15] axi_rdata_o[16] 0
4 axi_rdata_o[15] *33005:din0[21] 6.54202e-05
5 axi_rdata_o[15] *33005:din0[22] 0.000121068
6 axi_rdata_o[15] *130:5 0
7 axi_rdata_o[15] *131:5 0.00129792
8 axi_rdata_o[14] axi_rdata_o[15] 0
*RES
1 *33005:dout0[15] axi_rdata_o[15] 14.1652 
*END

*D_NET *88 0.00821416
*CONN
*P axi_rdata_o[16] O
*I *33005:dout0[16] O *D sky130_sram_1kbyte_1rw1r_32x256_8
*CAP
1 axi_rdata_o[16] 0.00317221
2 *33005:dout0[16] 0.00317221
3 axi_rdata_o[16] axi_rdata_o[17] 0
4 axi_rdata_o[16] *33005:din0[22] 0
5 axi_rdata_o[16] *33005:din0[23] 6.65476e-05
6 axi_rdata_o[16] *131:5 0
7 axi_rdata_o[16] *132:5 0.00180318
8 axi_rdata_o[15] axi_rdata_o[16] 0
*RES
1 *33005:dout0[16] axi_rdata_o[16] 14.074 
*END

*D_NET *89 0.00837875
*CONN
*P axi_rdata_o[17] O
*I *33005:dout0[17] O *D sky130_sram_1kbyte_1rw1r_32x256_8
*CAP
1 axi_rdata_o[17] 0.00386715
2 *33005:dout0[17] 0.00386715
3 axi_rdata_o[17] axi_rdata_o[18] 0
4 axi_rdata_o[17] *33005:din0[23] 0
5 axi_rdata_o[17] *33005:din0[24] 0.000160221
6 axi_rdata_o[17] *132:5 0
7 axi_rdata_o[17] *133:5 0.000484236
8 axi_rdata_o[16] axi_rdata_o[17] 0
*RES
1 *33005:dout0[17] axi_rdata_o[17] 14.1145 
*END

*D_NET *90 0.00965553
*CONN
*P axi_rdata_o[18] O
*I *33005:dout0[18] O *D sky130_sram_1kbyte_1rw1r_32x256_8
*CAP
1 axi_rdata_o[18] 0.00324785
2 *33005:dout0[18] 0.00324785
3 axi_rdata_o[18] axi_rdata_o[19] 0.000562196
4 axi_rdata_o[18] *33005:din0[24] 0
5 axi_rdata_o[18] *33005:din0[25] 0.000265676
6 axi_rdata_o[18] *134:5 0.00233195
7 axi_rdata_o[17] axi_rdata_o[18] 0
*RES
1 *33005:dout0[18] axi_rdata_o[18] 14.0993 
*END

*D_NET *91 0.0077624
*CONN
*P axi_rdata_o[19] O
*I *33005:dout0[19] O *D sky130_sram_1kbyte_1rw1r_32x256_8
*CAP
1 axi_rdata_o[19] 0.00285671
2 *33005:dout0[19] 0.00285671
3 axi_rdata_o[19] axi_rdata_o[20] 0
4 axi_rdata_o[19] *33005:din0[25] 6.54202e-05
5 axi_rdata_o[19] *33005:din0[26] 0.000121068
6 axi_rdata_o[19] *134:5 0
7 axi_rdata_o[19] *135:5 0.0013003
8 axi_rdata_o[18] axi_rdata_o[19] 0.000562196
*RES
1 *33005:dout0[19] axi_rdata_o[19] 14.0917 
*END

*D_NET *92 0.00822406
*CONN
*P axi_rdata_o[1] O
*I *33005:dout0[1] O *D sky130_sram_1kbyte_1rw1r_32x256_8
*CAP
1 axi_rdata_o[1] 0.00314991
2 *33005:dout0[1] 0.00314991
3 axi_rdata_o[1] axi_rdata_o[2] 0
4 axi_rdata_o[1] *33005:din0[6] 0
5 axi_rdata_o[1] *33005:din0[7] 0.000121068
6 axi_rdata_o[1] *145:5 0
7 axi_rdata_o[1] *146:5 0.00180318
8 axi_rdata_o[0] axi_rdata_o[1] 0
*RES
1 *33005:dout0[1] axi_rdata_o[1] 14.1044 
*END

*D_NET *93 0.0091576
*CONN
*P axi_rdata_o[20] O
*I *33005:dout0[20] O *D sky130_sram_1kbyte_1rw1r_32x256_8
*CAP
1 axi_rdata_o[20] 0.00312207
2 *33005:dout0[20] 0.00312207
3 axi_rdata_o[20] axi_rdata_o[21] 0
4 axi_rdata_o[20] *33005:din0[26] 0
5 axi_rdata_o[20] *33005:din0[27] 8.37296e-05
6 axi_rdata_o[20] *33005:din0[28] 0
7 axi_rdata_o[20] *136:5 0.00218403
8 axi_rdata_o[20] *137:5 0.000645708
9 axi_rdata_o[19] axi_rdata_o[20] 0
*RES
1 *33005:dout0[20] axi_rdata_o[20] 14.0942 
*END

*D_NET *94 0.00643958
*CONN
*P axi_rdata_o[21] O
*I *33005:dout0[21] O *D sky130_sram_1kbyte_1rw1r_32x256_8
*CAP
1 axi_rdata_o[21] 0.00318876
2 *33005:dout0[21] 0.00318876
3 axi_rdata_o[21] axi_rdata_o[22] 0
4 axi_rdata_o[21] *33005:din0[28] 6.2057e-05
5 axi_rdata_o[21] *33005:din0[29] 0
6 axi_rdata_o[21] *137:5 0
7 axi_rdata_o[21] *138:5 0
8 axi_rdata_o[20] axi_rdata_o[21] 0
*RES
1 *33005:dout0[21] axi_rdata_o[21] 14.1348 
*END

*D_NET *95 0.00769999
*CONN
*P axi_rdata_o[22] O
*I *33005:dout0[22] O *D sky130_sram_1kbyte_1rw1r_32x256_8
*CAP
1 axi_rdata_o[22] 0.00314275
2 *33005:dout0[22] 0.00314275
3 axi_rdata_o[22] axi_rdata_o[23] 0
4 axi_rdata_o[22] *33005:din0[29] 0.000116578
5 axi_rdata_o[22] *33005:din0[30] 0
6 axi_rdata_o[22] *138:5 0.00129792
7 axi_rdata_o[21] axi_rdata_o[22] 0
*RES
1 *33005:dout0[22] axi_rdata_o[22] 14.0816 
*END

*D_NET *96 0.00790939
*CONN
*P axi_rdata_o[23] O
*I *33005:dout0[23] O *D sky130_sram_1kbyte_1rw1r_32x256_8
*CAP
1 axi_rdata_o[23] 0.00243976
2 *33005:dout0[23] 0.00243976
3 axi_rdata_o[23] axi_rdata_o[24] 0
4 axi_rdata_o[23] *33005:din0[30] 0.00272125
5 axi_rdata_o[23] *33005:din0[31] 0.000308608
6 axi_rdata_o[22] axi_rdata_o[23] 0
*RES
1 *33005:dout0[23] axi_rdata_o[23] 14.0993 
*END

*D_NET *97 0.00833131
*CONN
*P axi_rdata_o[24] O
*I *33005:dout0[24] O *D sky130_sram_1kbyte_1rw1r_32x256_8
*CAP
1 axi_rdata_o[24] 0.00250677
2 *33005:dout0[24] 0.00250677
3 axi_rdata_o[24] axi_rdata_o[25] 0
4 axi_rdata_o[24] *33005:din0[31] 0.00331777
5 axi_rdata_o[23] axi_rdata_o[24] 0
*RES
1 *33005:dout0[24] axi_rdata_o[24] 14.079 
*END

*D_NET *98 0.0063385
*CONN
*P axi_rdata_o[25] O
*I *33005:dout0[25] O *D sky130_sram_1kbyte_1rw1r_32x256_8
*CAP
1 axi_rdata_o[25] 0.00316925
2 *33005:dout0[25] 0.00316925
3 axi_rdata_o[25] axi_rdata_o[26] 0
4 axi_rdata_o[24] axi_rdata_o[25] 0
*RES
1 *33005:dout0[25] axi_rdata_o[25] 14.0765 
*END

*D_NET *99 0.00635691
*CONN
*P axi_rdata_o[26] O
*I *33005:dout0[26] O *D sky130_sram_1kbyte_1rw1r_32x256_8
*CAP
1 axi_rdata_o[26] 0.00317846
2 *33005:dout0[26] 0.00317846
3 axi_rdata_o[26] axi_rdata_o[27] 0
4 axi_rdata_o[25] axi_rdata_o[26] 0
*RES
1 *33005:dout0[26] axi_rdata_o[26] 14.1044 
*END

*D_NET *100 0.00634185
*CONN
*P axi_rdata_o[27] O
*I *33005:dout0[27] O *D sky130_sram_1kbyte_1rw1r_32x256_8
*CAP
1 axi_rdata_o[27] 0.00317092
2 *33005:dout0[27] 0.00317092
3 axi_rdata_o[27] axi_rdata_o[28] 0
4 axi_rdata_o[26] axi_rdata_o[27] 0
*RES
1 *33005:dout0[27] axi_rdata_o[27] 14.0816 
*END

*D_NET *101 0.00635356
*CONN
*P axi_rdata_o[28] O
*I *33005:dout0[28] O *D sky130_sram_1kbyte_1rw1r_32x256_8
*CAP
1 axi_rdata_o[28] 0.00317678
2 *33005:dout0[28] 0.00317678
3 axi_rdata_o[28] axi_rdata_o[29] 0
4 axi_rdata_o[27] axi_rdata_o[28] 0
*RES
1 *33005:dout0[28] axi_rdata_o[28] 14.0993 
*END

*D_NET *102 0.00638266
*CONN
*P axi_rdata_o[29] O
*I *33005:dout0[29] O *D sky130_sram_1kbyte_1rw1r_32x256_8
*CAP
1 axi_rdata_o[29] 0.00319133
2 *33005:dout0[29] 0.00319133
3 axi_rdata_o[29] axi_rdata_o[30] 0
4 axi_rdata_o[28] axi_rdata_o[29] 0
*RES
1 *33005:dout0[29] axi_rdata_o[29] 14.1398 
*END

*D_NET *103 0.00823804
*CONN
*P axi_rdata_o[2] O
*I *33005:dout0[2] O *D sky130_sram_1kbyte_1rw1r_32x256_8
*CAP
1 axi_rdata_o[2] 0.00312253
2 *33005:dout0[2] 0.00312253
3 axi_rdata_o[2] axi_rdata_o[3] 0
4 axi_rdata_o[2] *33005:din0[7] 6.54202e-05
5 axi_rdata_o[2] *33005:din0[8] 0.000121068
6 axi_rdata_o[2] *146:5 0
7 axi_rdata_o[2] *147:5 0.00180649
8 axi_rdata_o[1] axi_rdata_o[2] 0
*RES
1 *33005:dout0[2] axi_rdata_o[2] 14.1145 
*END

*D_NET *104 0.0063385
*CONN
*P axi_rdata_o[30] O
*I *33005:dout0[30] O *D sky130_sram_1kbyte_1rw1r_32x256_8
*CAP
1 axi_rdata_o[30] 0.00316925
2 *33005:dout0[30] 0.00316925
3 axi_rdata_o[30] axi_rdata_o[31] 0
4 axi_rdata_o[29] axi_rdata_o[30] 0
*RES
1 *33005:dout0[30] axi_rdata_o[30] 14.0765 
*END

*D_NET *105 0.00635691
*CONN
*P axi_rdata_o[31] O
*I *33005:dout0[31] O *D sky130_sram_1kbyte_1rw1r_32x256_8
*CAP
1 axi_rdata_o[31] 0.00317846
2 *33005:dout0[31] 0.00317846
3 axi_rdata_o[30] axi_rdata_o[31] 0
*RES
1 *33005:dout0[31] axi_rdata_o[31] 14.1044 
*END

*D_NET *106 0.00857214
*CONN
*P axi_rdata_o[3] O
*I *33005:dout0[3] O *D sky130_sram_1kbyte_1rw1r_32x256_8
*CAP
1 axi_rdata_o[3] 0.00306366
2 *33005:dout0[3] 0.00306366
3 axi_rdata_o[3] axi_rdata_o[4] 0
4 axi_rdata_o[3] *33005:din0[9] 0.000265676
5 axi_rdata_o[3] *33005:din0[10] 0
6 axi_rdata_o[3] *148:5 0.00217915
7 axi_rdata_o[2] axi_rdata_o[3] 0
*RES
1 *33005:dout0[3] axi_rdata_o[3] 14.1297 
*END

*D_NET *107 0.00852893
*CONN
*P axi_rdata_o[4] O
*I *33005:dout0[4] O *D sky130_sram_1kbyte_1rw1r_32x256_8
*CAP
1 axi_rdata_o[4] 0.00308136
2 *33005:dout0[4] 0.00308136
3 axi_rdata_o[4] axi_rdata_o[5] 0
4 axi_rdata_o[4] *33005:din0[10] 0.000262109
5 axi_rdata_o[4] *33005:din0[11] 0
6 axi_rdata_o[4] *118:5 0.00210411
7 axi_rdata_o[4] *119:5 0
8 axi_rdata_o[3] axi_rdata_o[4] 0
*RES
1 *33005:dout0[4] axi_rdata_o[4] 14.1449 
*END

*D_NET *108 0.00850966
*CONN
*P axi_rdata_o[5] O
*I *33005:dout0[5] O *D sky130_sram_1kbyte_1rw1r_32x256_8
*CAP
1 axi_rdata_o[5] 0.00312273
2 *33005:dout0[5] 0.00312273
3 axi_rdata_o[5] axi_rdata_o[6] 0
4 axi_rdata_o[5] *33005:din0[11] 8.37296e-05
5 axi_rdata_o[5] *33005:din0[12] 0
6 axi_rdata_o[5] *119:5 0.00218047
7 axi_rdata_o[4] axi_rdata_o[5] 0
*RES
1 *33005:dout0[5] axi_rdata_o[5] 14.0942 
*END

*D_NET *109 0.00852944
*CONN
*P axi_rdata_o[6] O
*I *33005:dout0[6] O *D sky130_sram_1kbyte_1rw1r_32x256_8
*CAP
1 axi_rdata_o[6] 0.00308894
2 *33005:dout0[6] 0.00308894
3 axi_rdata_o[6] axi_rdata_o[7] 0
4 axi_rdata_o[6] *33005:din0[12] 0.000262109
5 axi_rdata_o[6] *33005:din0[13] 0
6 axi_rdata_o[6] *120:5 0.00208945
7 axi_rdata_o[6] *121:5 0
8 axi_rdata_o[5] axi_rdata_o[6] 0
*RES
1 *33005:dout0[6] axi_rdata_o[6] 14.1804 
*END

*D_NET *110 0.00845517
*CONN
*P axi_rdata_o[7] O
*I *33005:dout0[7] O *D sky130_sram_1kbyte_1rw1r_32x256_8
*CAP
1 axi_rdata_o[7] 0.00305455
2 *33005:dout0[7] 0.00305455
3 axi_rdata_o[7] axi_rdata_o[8] 0
4 axi_rdata_o[7] *33005:din0[13] 0.000155882
5 axi_rdata_o[7] *33005:din0[14] 0
6 axi_rdata_o[7] *121:5 0.00219018
7 axi_rdata_o[7] *122:5 0
8 axi_rdata_o[6] axi_rdata_o[7] 0
*RES
1 *33005:dout0[7] axi_rdata_o[7] 14.0816 
*END

*D_NET *111 0.00852737
*CONN
*P axi_rdata_o[8] O
*I *33005:dout0[8] O *D sky130_sram_1kbyte_1rw1r_32x256_8
*CAP
1 axi_rdata_o[8] 0.00308791
2 *33005:dout0[8] 0.00308791
3 axi_rdata_o[8] axi_rdata_o[9] 0
4 axi_rdata_o[8] *33005:din0[14] 0.000262109
5 axi_rdata_o[8] *33005:din0[15] 0
6 axi_rdata_o[8] *122:5 0.00208945
7 axi_rdata_o[8] *123:5 0
8 axi_rdata_o[7] axi_rdata_o[8] 0
*RES
1 *33005:dout0[8] axi_rdata_o[8] 14.1601 
*END

*D_NET *112 0.00649372
*CONN
*P axi_rdata_o[9] O
*I *33005:dout0[9] O *D sky130_sram_1kbyte_1rw1r_32x256_8
*CAP
1 axi_rdata_o[9] 0.00321583
2 *33005:dout0[9] 0.00321583
3 axi_rdata_o[9] *33005:din0[15] 6.2057e-05
4 axi_rdata_o[9] *33005:din0[16] 0
5 axi_rdata_o[9] *123:5 0
6 axi_rdata_o[9] *124:5 0
7 axi_rdata_o[10] axi_rdata_o[9] 0
8 axi_rdata_o[8] axi_rdata_o[9] 0
*RES
1 *33005:dout0[9] axi_rdata_o[9] 14.1398 
*END

*D_NET *113 0.00265876
*CONN
*P axi_rready_i I
*I *32950:A I *D sky130_fd_sc_hd__inv_2
*I *32961:A2 I *D sky130_fd_sc_hd__a22o_2
*CAP
1 axi_rready_i 0.000248566
2 *32950:A 0.000206716
3 *32961:A2 0.000259613
4 *113:9 0.000714896
5 axi_awready_o *32961:A2 9.64366e-05
6 *32951:A *32950:A 0.000351834
7 *32961:B2 *32950:A 0.000133205
8 *32961:B2 *32961:A2 0.000353504
9 *32961:B2 *113:9 1.88656e-05
10 *32969:B2 *113:9 0
11 *32970:A1 *113:9 0.000275125
*RES
1 axi_rready_i *113:9 1.55837 
2 *113:9 *32961:A2 8.67375 
3 *113:9 *32950:A 8.445 
*END

*D_NET *114 0.00124586
*CONN
*P axi_rresp_o[0] O
*I *32991:LO O *D sky130_fd_sc_hd__conb_1
*CAP
1 axi_rresp_o[0] 0.000622929
2 *32991:LO 0.000622929
*RES
1 *32991:LO axi_rresp_o[0] 5.8753 
*END

*D_NET *115 0.00130841
*CONN
*P axi_rresp_o[1] O
*I *32992:LO O *D sky130_fd_sc_hd__conb_1
*CAP
1 axi_rresp_o[1] 0.000654207
2 *32992:LO 0.000654207
3 axi_bresp_o[0] axi_rresp_o[1] 0
*RES
1 *32992:LO axi_rresp_o[1] 5.8753 
*END

*D_NET *116 0.00633517
*CONN
*P axi_rvalid_o O
*I *32958:A1 I *D sky130_fd_sc_hd__a21o_2
*I *32961:A1 I *D sky130_fd_sc_hd__a22o_2
*I *32979:Q O *D sky130_fd_sc_hd__dfrtp_2
*CAP
1 axi_rvalid_o 0.000536954
2 *32958:A1 0
3 *32961:A1 0.00022958
4 *32979:Q 0.000996711
5 *116:16 0.00103511
6 *116:12 0.00126528
7 axi_rvalid_o *32958:B1 0
8 axi_rvalid_o *32979:RESET_B 0.000283553
9 axi_rvalid_o *200:20 0
10 *32961:A1 *32958:A2 0
11 *32961:A1 *32959:A2 0
12 *32961:A1 *200:20 0
13 *116:12 *32979:RESET_B 5.78448e-05
14 *116:12 *33003:A 0.000811805
15 *116:12 *33005:addr0[5] 0.000238388
16 *116:12 *33005:addr0[6] 0.000106253
17 axi_awready_o axi_rvalid_o 0.000235927
18 axi_bvalid_o axi_rvalid_o 3.97748e-05
19 *32961:B1 axi_rvalid_o 0.000105098
20 *32961:B1 *32961:A1 0.000392889
21 *33004:A *116:12 0
22 *77:9 axi_rvalid_o 0
*RES
1 *32979:Q *116:12 21.005 
2 *116:12 *116:16 4.865 
3 *116:16 *32961:A1 8.295 
4 *116:16 axi_rvalid_o 3.78757 
5 *116:12 *32958:A1 1.6 
*END

*D_NET *117 0.00625812
*CONN
*P axi_wdata_i[0] I
*I *33005:din0[0] I *D sky130_sram_1kbyte_1rw1r_32x256_8
*CAP
1 axi_wdata_i[0] 0.00296624
2 *33005:din0[0] 0.000162818
3 *117:5 0.00312906
4 *33005:din0[0] *33005:din0[1] 0
5 *33005:din0[0] *33005:wmask0[3] 0
*RES
1 axi_wdata_i[0] *117:5 50.6925 
2 *117:5 *33005:din0[0] 1.43067 
*END

*D_NET *118 0.00837586
*CONN
*P axi_wdata_i[10] I
*I *33005:din0[10] I *D sky130_sram_1kbyte_1rw1r_32x256_8
*CAP
1 axi_wdata_i[10] 0.00287808
2 *33005:din0[10] 0.000126744
3 *118:5 0.00300482
4 axi_rdata_o[3] *33005:din0[10] 0
5 axi_rdata_o[4] *33005:din0[10] 0.000262109
6 axi_rdata_o[4] *118:5 0.00210411
*RES
1 axi_wdata_i[10] *118:5 50.6925 
2 *118:5 *33005:din0[10] 1.46107 
*END

*D_NET *119 0.00840861
*CONN
*P axi_wdata_i[11] I
*I *33005:din0[11] I *D sky130_sram_1kbyte_1rw1r_32x256_8
*CAP
1 axi_wdata_i[11] 0.00290723
2 *33005:din0[11] 0.00016498
3 *119:5 0.0030722
4 axi_rdata_o[4] *33005:din0[11] 0
5 axi_rdata_o[4] *119:5 0
6 axi_rdata_o[5] *33005:din0[11] 8.37296e-05
7 axi_rdata_o[5] *119:5 0.00218047
*RES
1 axi_wdata_i[11] *119:5 51.2025 
2 *119:5 *33005:din0[11] 1.53453 
*END

*D_NET *120 0.00833776
*CONN
*P axi_wdata_i[12] I
*I *33005:din0[12] I *D sky130_sram_1kbyte_1rw1r_32x256_8
*CAP
1 axi_wdata_i[12] 0.00288543
2 *33005:din0[12] 0.000107672
3 *120:5 0.0029931
4 axi_rdata_o[5] *33005:din0[12] 0
5 axi_rdata_o[6] *33005:din0[12] 0.000262109
6 axi_rdata_o[6] *120:5 0.00208945
*RES
1 axi_wdata_i[12] *120:5 50.6925 
2 *120:5 *33005:din0[12] 1.4256 
*END

*D_NET *121 0.00834377
*CONN
*P axi_wdata_i[13] I
*I *33005:din0[13] I *D sky130_sram_1kbyte_1rw1r_32x256_8
*CAP
1 axi_wdata_i[13] 0.00287913
2 *33005:din0[13] 0.000119721
3 *121:5 0.00299885
4 axi_rdata_o[6] *33005:din0[13] 0
5 axi_rdata_o[6] *121:5 0
6 axi_rdata_o[7] *33005:din0[13] 0.000155882
7 axi_rdata_o[7] *121:5 0.00219018
*RES
1 axi_wdata_i[13] *121:5 50.6925 
2 *121:5 *33005:din0[13] 1.43573 
*END

*D_NET *122 0.0083601
*CONN
*P axi_wdata_i[14] I
*I *33005:din0[14] I *D sky130_sram_1kbyte_1rw1r_32x256_8
*CAP
1 axi_wdata_i[14] 0.00288543
2 *33005:din0[14] 0.000118846
3 *122:5 0.00300427
4 axi_rdata_o[7] *33005:din0[14] 0
5 axi_rdata_o[7] *122:5 0
6 axi_rdata_o[8] *33005:din0[14] 0.000262109
7 axi_rdata_o[8] *122:5 0.00208945
*RES
1 axi_wdata_i[14] *122:5 50.6925 
2 *122:5 *33005:din0[14] 1.44587 
*END

*D_NET *123 0.00636217
*CONN
*P axi_wdata_i[15] I
*I *33005:din0[15] I *D sky130_sram_1kbyte_1rw1r_32x256_8
*CAP
1 axi_wdata_i[15] 0.00299629
2 *33005:din0[15] 0.000153768
3 *123:5 0.00315006
4 axi_rdata_o[8] *33005:din0[15] 0
5 axi_rdata_o[8] *123:5 0
6 axi_rdata_o[9] *33005:din0[15] 6.2057e-05
7 axi_rdata_o[9] *123:5 0
*RES
1 axi_wdata_i[15] *123:5 51.2025 
2 *123:5 *33005:din0[15] 1.46107 
*END

*D_NET *124 0.00759742
*CONN
*P axi_wdata_i[16] I
*I *33005:din0[16] I *D sky130_sram_1kbyte_1rw1r_32x256_8
*CAP
1 axi_wdata_i[16] 0.0029682
2 *33005:din0[16] 0.000126514
3 *124:5 0.00309471
4 axi_rdata_o[10] *33005:din0[16] 0.000116578
5 axi_rdata_o[10] *124:5 0.00129142
6 axi_rdata_o[9] *33005:din0[16] 0
7 axi_rdata_o[9] *124:5 0
*RES
1 axi_wdata_i[16] *124:5 50.6925 
2 *124:5 *33005:din0[16] 1.4408 
*END

*D_NET *125 0.00759346
*CONN
*P axi_wdata_i[17] I
*I *33005:din0[17] I *D sky130_sram_1kbyte_1rw1r_32x256_8
*CAP
1 axi_wdata_i[17] 0.0029682
2 *33005:din0[17] 0.00010368
3 *125:5 0.00307188
4 axi_rdata_o[10] *33005:din0[17] 6.89441e-05
5 axi_rdata_o[10] *125:5 0.00129142
6 axi_rdata_o[11] *33005:din0[17] 8.93491e-05
7 axi_rdata_o[11] *125:5 0
*RES
1 axi_wdata_i[17] *125:5 50.6925 
2 *125:5 *33005:din0[17] 1.45093 
*END

*D_NET *126 0.007611
*CONN
*P axi_wdata_i[18] I
*I *33005:din0[18] I *D sky130_sram_1kbyte_1rw1r_32x256_8
*CAP
1 axi_wdata_i[18] 0.0029682
2 *33005:din0[18] 0.000108899
3 *126:5 0.0030771
4 axi_rdata_o[11] *33005:din0[18] 9.34693e-05
5 axi_rdata_o[11] *126:5 0.00129792
6 axi_rdata_o[12] *33005:din0[18] 6.54202e-05
7 axi_rdata_o[12] *126:5 0
*RES
1 axi_wdata_i[18] *126:5 50.6925 
2 *126:5 *33005:din0[18] 1.46107 
*END

*D_NET *127 0.0076901
*CONN
*P axi_wdata_i[19] I
*I *33005:din0[19] I *D sky130_sram_1kbyte_1rw1r_32x256_8
*CAP
1 axi_wdata_i[19] 0.00299629
2 *33005:din0[19] 0.000166529
3 *127:5 0.00316282
4 axi_rdata_o[12] *33005:din0[19] 6.65476e-05
5 axi_rdata_o[12] *127:5 0.00129792
6 axi_rdata_o[13] *33005:din0[19] 0
7 axi_rdata_o[13] *127:5 0
*RES
1 axi_wdata_i[19] *127:5 51.2025 
2 *127:5 *33005:din0[19] 1.53453 
*END

*D_NET *128 0.00628875
*CONN
*P axi_wdata_i[1] I
*I *33005:din0[1] I *D sky130_sram_1kbyte_1rw1r_32x256_8
*CAP
1 axi_wdata_i[1] 0.00296624
2 *33005:din0[1] 0.000178131
3 *128:5 0.00314438
4 *33005:din0[1] *33005:din0[2] 0
5 *33005:din0[0] *33005:din0[1] 0
*RES
1 axi_wdata_i[1] *128:5 50.6925 
2 *128:5 *33005:din0[1] 1.45093 
*END

*D_NET *129 0.00757285
*CONN
*P axi_wdata_i[20] I
*I *33005:din0[20] I *D sky130_sram_1kbyte_1rw1r_32x256_8
*CAP
1 axi_wdata_i[20] 0.0029682
2 *33005:din0[20] 8.9827e-05
3 *129:5 0.00305802
4 axi_rdata_o[13] *33005:din0[20] 9.34693e-05
5 axi_rdata_o[13] *129:5 0.00129792
6 axi_rdata_o[14] *33005:din0[20] 6.54202e-05
7 axi_rdata_o[14] *129:5 0
*RES
1 axi_wdata_i[20] *129:5 50.6925 
2 *129:5 *33005:din0[20] 1.4256 
*END

*D_NET *130 0.00811169
*CONN
*P axi_wdata_i[21] I
*I *33005:din0[21] I *D sky130_sram_1kbyte_1rw1r_32x256_8
*CAP
1 axi_wdata_i[21] 0.0029682
2 *33005:din0[21] 9.28137e-05
3 *130:5 0.00306101
4 axi_rdata_o[14] *33005:din0[21] 0.000121068
5 axi_rdata_o[14] *130:5 0.00180318
6 axi_rdata_o[15] *33005:din0[21] 6.54202e-05
7 axi_rdata_o[15] *130:5 0
*RES
1 axi_wdata_i[21] *130:5 50.6925 
2 *130:5 *33005:din0[21] 1.43573 
*END

*D_NET *131 0.00761147
*CONN
*P axi_wdata_i[22] I
*I *33005:din0[22] I *D sky130_sram_1kbyte_1rw1r_32x256_8
*CAP
1 axi_wdata_i[22] 0.0029682
2 *33005:din0[22] 0.000128045
3 *131:5 0.00309624
4 axi_rdata_o[15] *33005:din0[22] 0.000121068
5 axi_rdata_o[15] *131:5 0.00129792
6 axi_rdata_o[16] *33005:din0[22] 0
7 axi_rdata_o[16] *131:5 0
*RES
1 axi_wdata_i[22] *131:5 50.6925 
2 *131:5 *33005:din0[22] 1.44587 
*END

*D_NET *132 0.00816764
*CONN
*P axi_wdata_i[23] I
*I *33005:din0[23] I *D sky130_sram_1kbyte_1rw1r_32x256_8
*CAP
1 axi_wdata_i[23] 0.00299629
2 *33005:din0[23] 0.000152667
3 *132:5 0.00314895
4 axi_rdata_o[16] *33005:din0[23] 6.65476e-05
5 axi_rdata_o[16] *132:5 0.00180318
6 axi_rdata_o[17] *33005:din0[23] 0
7 axi_rdata_o[17] *132:5 0
*RES
1 axi_wdata_i[23] *132:5 51.2025 
2 *132:5 *33005:din0[23] 1.46107 
*END

*D_NET *133 0.00682512
*CONN
*P axi_wdata_i[24] I
*I *33005:din0[24] I *D sky130_sram_1kbyte_1rw1r_32x256_8
*CAP
1 axi_wdata_i[24] 0.00295776
2 *33005:din0[24] 0.000132574
3 *133:5 0.00309033
4 axi_rdata_o[17] *33005:din0[24] 0.000160221
5 axi_rdata_o[17] *133:5 0.000484236
6 axi_rdata_o[18] *33005:din0[24] 0
*RES
1 axi_wdata_i[24] *133:5 50.6925 
2 *133:5 *33005:din0[24] 1.46107 
*END

*D_NET *134 0.00860805
*CONN
*P axi_wdata_i[25] I
*I *33005:din0[25] I *D sky130_sram_1kbyte_1rw1r_32x256_8
*CAP
1 axi_wdata_i[25] 0.00288002
2 *33005:din0[25] 9.24824e-05
3 *134:5 0.0029725
4 axi_rdata_o[18] *33005:din0[25] 0.000265676
5 axi_rdata_o[18] *134:5 0.00233195
6 axi_rdata_o[19] *33005:din0[25] 6.54202e-05
7 axi_rdata_o[19] *134:5 0
*RES
1 axi_wdata_i[25] *134:5 50.6925 
2 *134:5 *33005:din0[25] 1.45093 
*END

*D_NET *135 0.00762965
*CONN
*P axi_wdata_i[26] I
*I *33005:din0[26] I *D sky130_sram_1kbyte_1rw1r_32x256_8
*CAP
1 axi_wdata_i[26] 0.0029682
2 *33005:din0[26] 0.000135944
3 *135:5 0.00310414
4 *33005:din0[26] *33005:din0[27] 0
5 axi_rdata_o[19] *33005:din0[26] 0.000121068
6 axi_rdata_o[19] *135:5 0.0013003
7 axi_rdata_o[20] *33005:din0[26] 0
*RES
1 axi_wdata_i[26] *135:5 50.6925 
2 *135:5 *33005:din0[26] 1.46107 
*END

*D_NET *136 0.00840827
*CONN
*P axi_wdata_i[27] I
*I *33005:din0[27] I *D sky130_sram_1kbyte_1rw1r_32x256_8
*CAP
1 axi_wdata_i[27] 0.00290527
2 *33005:din0[27] 0.00016498
3 *136:5 0.00307025
4 *33005:din0[27] *33005:din0[28] 0
5 *136:5 *137:5 0
6 axi_rdata_o[20] *33005:din0[27] 8.37296e-05
7 axi_rdata_o[20] *136:5 0.00218403
8 *33005:din0[26] *33005:din0[27] 0
*RES
1 axi_wdata_i[27] *136:5 51.2025 
2 *136:5 *33005:din0[27] 1.53453 
*END

*D_NET *137 0.00700088
*CONN
*P axi_wdata_i[28] I
*I *33005:din0[28] I *D sky130_sram_1kbyte_1rw1r_32x256_8
*CAP
1 axi_wdata_i[28] 0.00299629
2 *33005:din0[28] 0.000150268
3 *137:5 0.00314656
4 axi_rdata_o[20] *33005:din0[28] 0
5 axi_rdata_o[20] *137:5 0.000645708
6 axi_rdata_o[21] *33005:din0[28] 6.2057e-05
7 axi_rdata_o[21] *137:5 0
8 *33005:din0[27] *33005:din0[28] 0
9 *136:5 *137:5 0
*RES
1 axi_wdata_i[28] *137:5 51.2025 
2 *137:5 *33005:din0[28] 1.46613 
*END

*D_NET *138 0.00759861
*CONN
*P axi_wdata_i[29] I
*I *33005:din0[29] I *D sky130_sram_1kbyte_1rw1r_32x256_8
*CAP
1 axi_wdata_i[29] 0.0029682
2 *33005:din0[29] 0.000123863
3 *138:5 0.00309206
4 axi_rdata_o[21] *33005:din0[29] 0
5 axi_rdata_o[21] *138:5 0
6 axi_rdata_o[22] *33005:din0[29] 0.000116578
7 axi_rdata_o[22] *138:5 0.00129792
*RES
1 axi_wdata_i[29] *138:5 50.6925 
2 *138:5 *33005:din0[29] 1.43573 
*END

*D_NET *139 0.00629928
*CONN
*P axi_wdata_i[2] I
*I *33005:din0[2] I *D sky130_sram_1kbyte_1rw1r_32x256_8
*CAP
1 axi_wdata_i[2] 0.00296624
2 *33005:din0[2] 0.000183397
3 *139:5 0.00314964
4 *33005:din0[2] *33005:din0[3] 0
5 *33005:din0[1] *33005:din0[2] 0
*RES
1 axi_wdata_i[2] *139:5 50.6925 
2 *139:5 *33005:din0[2] 1.46107 
*END

*D_NET *140 0.00778935
*CONN
*P axi_wdata_i[30] I
*I *33005:din0[30] I *D sky130_sram_1kbyte_1rw1r_32x256_8
*CAP
1 axi_wdata_i[30] 0.00253405
2 *33005:din0[30] 0.00253405
3 *33005:din0[30] *33005:din0[31] 0
4 axi_rdata_o[22] *33005:din0[30] 0
5 axi_rdata_o[23] *33005:din0[30] 0.00272125
*RES
1 axi_wdata_i[30] *33005:din0[30] 31.9625 
*END

*D_NET *141 0.00822974
*CONN
*P axi_wdata_i[31] I
*I *33005:din0[31] I *D sky130_sram_1kbyte_1rw1r_32x256_8
*CAP
1 axi_wdata_i[31] 0.00230168
2 *33005:din0[31] 0.00230168
3 axi_rdata_o[23] *33005:din0[31] 0.000308608
4 axi_rdata_o[24] *33005:din0[31] 0.00331777
5 *33005:din0[30] *33005:din0[31] 0
*RES
1 axi_wdata_i[31] *33005:din0[31] 31.8941 
*END

*D_NET *142 0.00626114
*CONN
*P axi_wdata_i[3] I
*I *33005:din0[3] I *D sky130_sram_1kbyte_1rw1r_32x256_8
*CAP
1 axi_wdata_i[3] 0.00296624
2 *33005:din0[3] 0.000164324
3 *142:5 0.00313057
4 *33005:din0[3] *33005:din0[4] 0
5 *33005:din0[2] *33005:din0[3] 0
*RES
1 axi_wdata_i[3] *142:5 50.6925 
2 *142:5 *33005:din0[3] 1.4256 
*END

*D_NET *143 0.00626114
*CONN
*P axi_wdata_i[4] I
*I *33005:din0[4] I *D sky130_sram_1kbyte_1rw1r_32x256_8
*CAP
1 axi_wdata_i[4] 0.00296624
2 *33005:din0[4] 0.000164324
3 *143:5 0.00313057
4 *33005:din0[4] *33005:din0[5] 0
5 *33005:din0[3] *33005:din0[4] 0
*RES
1 axi_wdata_i[4] *143:5 50.6925 
2 *143:5 *33005:din0[4] 1.4256 
*END

*D_NET *144 0.00627844
*CONN
*P axi_wdata_i[5] I
*I *33005:din0[5] I *D sky130_sram_1kbyte_1rw1r_32x256_8
*CAP
1 axi_wdata_i[5] 0.00296624
2 *33005:din0[5] 0.000140267
3 *144:5 0.00310651
4 axi_rdata_o[0] *33005:din0[5] 6.54202e-05
5 axi_rdata_o[0] *144:5 0
6 *33005:din0[4] *33005:din0[5] 0
*RES
1 axi_wdata_i[5] *144:5 50.6925 
2 *144:5 *33005:din0[5] 1.43573 
*END

*D_NET *145 0.00811674
*CONN
*P axi_wdata_i[6] I
*I *33005:din0[6] I *D sky130_sram_1kbyte_1rw1r_32x256_8
*CAP
1 axi_wdata_i[6] 0.0029682
2 *33005:din0[6] 0.000128045
3 *145:5 0.00309624
4 axi_rdata_o[0] *33005:din0[6] 0.000121068
5 axi_rdata_o[0] *145:5 0.00180318
6 axi_rdata_o[1] *33005:din0[6] 0
7 axi_rdata_o[1] *145:5 0
*RES
1 axi_wdata_i[6] *145:5 50.6925 
2 *145:5 *33005:din0[6] 1.44587 
*END

*D_NET *146 0.00811692
*CONN
*P axi_wdata_i[7] I
*I *33005:din0[7] I *D sky130_sram_1kbyte_1rw1r_32x256_8
*CAP
1 axi_wdata_i[7] 0.0029682
2 *33005:din0[7] 9.54287e-05
3 *146:5 0.00306363
4 axi_rdata_o[1] *33005:din0[7] 0.000121068
5 axi_rdata_o[1] *146:5 0.00180318
6 axi_rdata_o[2] *33005:din0[7] 6.54202e-05
7 axi_rdata_o[2] *146:5 0
*RES
1 axi_wdata_i[7] *146:5 50.6925 
2 *146:5 *33005:din0[7] 1.4408 
*END

*D_NET *147 0.00810422
*CONN
*P axi_wdata_i[8] I
*I *33005:din0[8] I *D sky130_sram_1kbyte_1rw1r_32x256_8
*CAP
1 axi_wdata_i[8] 0.0029682
2 *33005:din0[8] 0.00012013
3 *147:5 0.00308833
4 *33005:din0[8] *33005:din0[9] 0
5 axi_rdata_o[2] *33005:din0[8] 0.000121068
6 axi_rdata_o[2] *147:5 0.00180649
*RES
1 axi_wdata_i[8] *147:5 50.6925 
2 *147:5 *33005:din0[8] 1.43067 
*END

*D_NET *148 0.00836043
*CONN
*P axi_wdata_i[9] I
*I *33005:din0[9] I *D sky130_sram_1kbyte_1rw1r_32x256_8
*CAP
1 axi_wdata_i[9] 0.00287417
2 *33005:din0[9] 8.36313e-05
3 *148:5 0.0029578
4 axi_rdata_o[3] *33005:din0[9] 0.000265676
5 axi_rdata_o[3] *148:5 0.00217915
6 *33005:din0[8] *33005:din0[9] 0
*RES
1 axi_wdata_i[9] *148:5 50.6925 
2 *148:5 *33005:din0[9] 1.38253 
*END

*D_NET *149 0.00125227
*CONN
*P axi_wready_o O
*I *32993:X O *D sky130_fd_sc_hd__buf_2
*CAP
1 axi_wready_o 0.000626136
2 *32993:X 0.000626136
*RES
1 *32993:X axi_wready_o 9.6901 
*END

*D_NET *150 0.00407029
*CONN
*P axi_wstrb_i[0] I
*I *32971:A I *D sky130_fd_sc_hd__and2_2
*CAP
1 axi_wstrb_i[0] 0.00203514
2 *32971:A 0.00203514
*RES
1 axi_wstrb_i[0] *32971:A 37.905 
*END

*D_NET *151 0.00367592
*CONN
*P axi_wstrb_i[1] I
*I *32972:A I *D sky130_fd_sc_hd__and2_2
*CAP
1 axi_wstrb_i[1] 0.00183796
2 *32972:A 0.00183796
*RES
1 axi_wstrb_i[1] *32972:A 35.04 
*END

*D_NET *152 0.00397859
*CONN
*P axi_wstrb_i[2] I
*I *32973:A I *D sky130_fd_sc_hd__and2_2
*CAP
1 axi_wstrb_i[2] 0.0018644
2 *32973:A 0.0018644
3 *32973:A *33005:wmask0[1] 0.000124895
4 *32974:B *32973:A 0.000124895
*RES
1 axi_wstrb_i[2] *32973:A 36.18 
*END

*D_NET *153 0.0043674
*CONN
*P axi_wstrb_i[3] I
*I *32974:A I *D sky130_fd_sc_hd__and2_2
*CAP
1 axi_wstrb_i[3] 0.00190047
2 *32974:A 0.00190047
3 *32974:A *33005:wmask0[1] 0.000354719
4 *32974:A *33005:wmask0[2] 0.000211748
*RES
1 axi_wstrb_i[3] *32974:A 38.25 
*END

*D_NET *154 0.00248696
*CONN
*P axi_wvalid_i I
*I *32954:C I *D sky130_fd_sc_hd__and3_2
*I *32953:B I *D sky130_fd_sc_hd__nand2_2
*CAP
1 axi_wvalid_i 0.000478107
2 *32954:C 0.000210307
3 *32953:B 0
4 *154:9 0.000688413
5 *32954:C *32954:B 7.00889e-06
6 *32954:A *32954:C 0.000210226
7 *32964:B2 *154:9 0.000305205
8 *32965:A1 *154:9 9.93012e-06
9 *32966:B2 *154:9 0
10 *76:9 *32954:C 5.18317e-06
11 *76:9 *154:9 0.000572579
*RES
1 axi_wvalid_i *154:9 2.65103 
2 *154:9 *32953:B 3.6 
3 *154:9 *32954:C 7.815 
*END

*D_NET *155 0.0579055
*CONN
*P clk_i I
*I *32994:A I *D sky130_fd_sc_hd__clkbuf_16
*I *33000:A I *D sky130_fd_sc_hd__clkbuf_16
*CAP
1 clk_i 0.0024879
2 *32994:A 6.58174e-05
3 *33000:A 0
4 *155:54 0.00370211
5 *155:52 0.00420939
6 *155:38 0.00433068
7 *155:36 0.00573308
8 *155:32 0.00310537
9 *155:12 0.0101724
10 *155:10 0.0137902
11 *32994:A *177:13 5.884e-05
12 *155:12 *33005:addr0[7] 0.000332363
13 *155:12 *178:15 0
14 *155:36 *179:16 4.90291e-05
15 *155:36 *179:20 0.00179359
16 *155:38 *179:6 0.00337705
17 *155:38 *179:16 0.000621272
18 *155:54 *32996:A 6.00828e-05
19 *155:54 *177:13 0.000943457
20 *155:54 *177:15 0.00307293
*RES
1 clk_i *155:10 9.79313 
2 *155:10 *155:12 172.357 
3 *155:12 *33000:A 3.6 
4 *155:10 *155:32 17.0912 
5 *155:32 *155:36 39.705 
6 *155:36 *155:38 71.52 
7 *155:38 *155:52 12.61 
8 *155:52 *155:54 69.9675 
9 *155:54 *32994:A 2.9125 
*END

*D_NET *156 0.00489508
*CONN
*P rst_ni I
*I *32977:RESET_B I *D sky130_fd_sc_hd__dfrtp_2
*I *32978:RESET_B I *D sky130_fd_sc_hd__dfrtp_2
*I *32976:SET_B I *D sky130_fd_sc_hd__dfstp_2
*I *32979:RESET_B I *D sky130_fd_sc_hd__dfrtp_2
*CAP
1 rst_ni 0.00138055
2 *32977:RESET_B 0.000183213
3 *32978:RESET_B 0
4 *32976:SET_B 0.000187187
5 *32979:RESET_B 0.00138055
6 *156:24 0.000259642
7 *156:22 0.000255668
8 *32976:SET_B *32977:D 1.64907e-05
9 *32976:SET_B *33005:addr0[6] 0
10 *32977:RESET_B *32977:D 0.000153007
11 *32977:RESET_B *33005:addr0[6] 0
12 *32979:RESET_B *32958:B1 0.000114858
13 *32979:RESET_B *33005:addr0[6] 0
14 *156:24 *32977:D 5.92849e-05
15 *156:24 *33005:addr0[6] 0
16 axi_bvalid_o *32979:RESET_B 0.000563235
17 axi_rvalid_o *32979:RESET_B 0.000283553
18 *33004:A *32979:RESET_B 0
19 *116:12 *32979:RESET_B 5.78448e-05
*RES
1 rst_ni *32979:RESET_B 9.40767 
2 *32979:RESET_B *156:22 2 
3 *156:22 *156:24 1.635 
4 *156:24 *32976:SET_B 5.21 
5 *156:24 *32978:RESET_B 2 
6 *156:22 *32977:RESET_B 6.185 
*END

*D_NET *157 0.00483975
*CONN
*I *32978:D I *D sky130_fd_sc_hd__dfrtp_2
*I *32975:X O *D sky130_fd_sc_hd__and2_2
*CAP
1 *32978:D 0.00229468
2 *32975:X 0.00229468
3 *32978:D *32975:B 9.27326e-05
4 *32978:D *32976:D 0
5 *32978:D *32977:D 0
6 *32978:D *32978:CLK 0
7 *32978:D *164:90 0.00015765
8 *32978:D *180:8 0
*RES
1 *32975:X *32978:D 38.145 
*END

*D_NET *158 0.00454292
*CONN
*I *32976:D I *D sky130_fd_sc_hd__dfstp_2
*I *32962:X O *D sky130_fd_sc_hd__a31o_2
*CAP
1 *32976:D 0.00186171
2 *32962:X 0.00186171
3 *32976:D *32977:D 0
4 *32976:D *33005:addr0[6] 0.000120655
5 *32976:D *165:25 0.000353049
6 *32969:A1 *32976:D 0.000331597
7 *32969:B1 *32976:D 1.4208e-05
8 *32978:D *32976:D 0
*RES
1 *32962:X *32976:D 34.875 
*END

*D_NET *159 0.00427929
*CONN
*I *32977:D I *D sky130_fd_sc_hd__dfrtp_2
*I *32959:X O *D sky130_fd_sc_hd__a21o_2
*CAP
1 *32977:D 0.00151186
2 *32959:X 0.00151186
3 *32977:D *32959:A1 0.000471307
4 *32977:D *32979:CLK 0
5 *32977:D *32979:D 6.73751e-05
6 *32976:D *32977:D 0
7 *32976:SET_B *32977:D 1.64907e-05
8 *32977:RESET_B *32977:D 0.000153007
9 *32978:D *32977:D 0
10 *75:191 *32977:D 0.000488099
11 *156:24 *32977:D 5.92849e-05
*RES
1 *32959:X *32977:D 35.865 
*END

*D_NET *160 0.00183842
*CONN
*I *33003:A I *D sky130_fd_sc_hd__dlygate4sd3_1
*I *32958:X O *D sky130_fd_sc_hd__a21o_2
*CAP
1 *33003:A 0.000478582
2 *32958:X 0.000478582
3 *33003:A *32959:A1 0
4 *33004:A *33003:A 6.9451e-05
5 *116:12 *33003:A 0.000811805
*RES
1 *32958:X *33003:A 18.225 
*END

*D_NET *161 0.0008657
*CONN
*I *32958:A2 I *D sky130_fd_sc_hd__a21o_2
*I *32950:Y O *D sky130_fd_sc_hd__inv_2
*CAP
1 *32958:A2 0.000359845
2 *32950:Y 0.000359845
3 *32958:A2 *32959:A2 2.10355e-05
4 *32958:A2 *200:20 7.89689e-05
5 *32951:A *32958:A2 4.60061e-05
6 *32961:A1 *32958:A2 0
*RES
1 *32950:Y *32958:A2 12.045 
*END

*D_NET *162 0.00051351
*CONN
*I *32959:A2 I *D sky130_fd_sc_hd__a21o_2
*I *32951:Y O *D sky130_fd_sc_hd__inv_2
*CAP
1 *32959:A2 0.000227807
2 *32951:Y 0.000227807
3 *32959:A2 *200:20 3.68596e-05
4 *32958:A2 *32959:A2 2.10355e-05
5 *32961:A1 *32959:A2 0
*RES
1 *32951:Y *32959:A2 10.155 
*END

*D_NET *163 0.000566784
*CONN
*I *32962:A2 I *D sky130_fd_sc_hd__a31o_2
*I *32952:Y O *D sky130_fd_sc_hd__inv_2
*CAP
1 *32962:A2 0.000247212
2 *32952:Y 0.000247212
3 *32962:A2 *32962:A3 0
4 *32962:A2 *200:24 7.23602e-05
*RES
1 *32952:Y *32962:A2 10.245 
*END

*D_NET *164 0.030429
*CONN
*I *32964:A2 I *D sky130_fd_sc_hd__a32o_2
*I *32970:A2 I *D sky130_fd_sc_hd__a32o_2
*I *32969:A2 I *D sky130_fd_sc_hd__a32o_2
*I *32962:A3 I *D sky130_fd_sc_hd__a31o_2
*I *32975:A I *D sky130_fd_sc_hd__and2_2
*I *32968:A2 I *D sky130_fd_sc_hd__a32o_2
*I *32967:A2 I *D sky130_fd_sc_hd__a32o_2
*I *32966:A2 I *D sky130_fd_sc_hd__a32o_2
*I *32965:A2 I *D sky130_fd_sc_hd__a32o_2
*I *32963:A2 I *D sky130_fd_sc_hd__a32o_2
*I *32957:A I *D sky130_fd_sc_hd__and2_2
*I *32953:Y O *D sky130_fd_sc_hd__nand2_2
*CAP
1 *32964:A2 0
2 *32970:A2 8.7426e-05
3 *32969:A2 0
4 *32962:A3 0.000394122
5 *32975:A 0.000122698
6 *32968:A2 0
7 *32967:A2 0
8 *32966:A2 0
9 *32965:A2 0
10 *32963:A2 0.00149276
11 *32957:A 0.00032896
12 *32953:Y 0
13 *164:116 0.000201637
14 *164:90 0.000702477
15 *164:86 0.000480722
16 *164:77 0.000274402
17 *164:68 0.000134082
18 *164:59 0.000114544
19 *164:50 0.000186677
20 *164:41 0.0019433
21 *164:35 0.00565652
22 *164:33 0.00531865
23 *164:31 0.000500708
24 *164:4 0.000829668
25 *32957:A *32957:B 5.13692e-05
26 *32962:A3 *165:10 2.92496e-05
27 *32962:A3 *165:25 9.56012e-05
28 *32962:A3 *200:20 4.99619e-05
29 *32963:A2 *32963:A3 0.0028828
30 *32970:A2 *32970:A3 0.000283734
31 *32975:A *32975:B 0.000201503
32 *164:31 *165:53 1.07797e-05
33 *164:31 *165:55 2.59981e-05
34 *164:35 *32957:B 0.000139933
35 *164:35 *165:55 0.000186092
36 *164:50 *165:53 0.00031465
37 *164:50 *165:55 4.31106e-05
38 *164:59 *165:49 9.50342e-06
39 *164:59 *165:51 0.000184252
40 *164:59 *165:53 4.10132e-05
41 *164:68 *165:49 0.000131401
42 *164:77 *165:10 0
43 *164:77 *165:47 0.000141592
44 *164:77 *165:49 4.38051e-05
45 *164:86 *165:10 0
46 *164:90 *32975:B 4.66108e-05
47 *164:116 *32970:A3 8.53113e-06
48 *164:116 *165:25 0
49 *32954:A *32957:A 3.25831e-05
50 *32962:A2 *32962:A3 0
51 *32964:A1 *164:31 0.000120655
52 *32964:B2 *32957:A 4.77757e-05
53 *32964:B2 *164:31 0.00095328
54 *32968:A1 *164:77 1.92979e-05
55 *32968:A1 *164:86 7.35685e-05
56 *32969:A1 *32962:A3 0.000158681
57 *32978:D *164:90 0.00015765
58 *32993:A *164:35 7.70938e-05
59 *75:10 *164:50 0.000133245
60 *75:14 *164:35 0.00111288
61 *75:14 *164:50 2.7881e-05
62 *75:57 *32963:A2 0.00288447
63 *75:121 *164:50 3.4222e-05
64 *75:121 *164:59 3.70758e-05
65 *75:132 *164:59 8.56938e-05
66 *75:132 *164:68 1.89685e-05
67 *75:143 *164:68 5.92191e-05
68 *75:143 *164:77 4.31921e-05
69 *75:154 *164:77 7.46188e-05
70 *75:165 *32970:A2 5.53249e-06
71 *75:165 *164:86 0.000162184
72 *75:165 *164:116 0.000113972
73 *75:176 *32970:A2 0.000156687
74 *76:9 *32957:A 0.000147781
*RES
1 *32953:Y *164:4 1.6 
2 *164:4 *32957:A 11.135 
3 *164:4 *164:31 14.74 
4 *164:31 *164:33 2 
5 *164:33 *164:35 95.475 
6 *164:35 *164:41 8.8475 
7 *164:41 *32963:A2 45.0025 
8 *164:33 *164:50 4.185 
9 *164:50 *32965:A2 3.6 
10 *164:50 *164:59 2.655 
11 *164:59 *32966:A2 3.6 
12 *164:59 *164:68 1.635 
13 *164:68 *32967:A2 3.6 
14 *164:68 *164:77 2.655 
15 *164:77 *32968:A2 3.6 
16 *164:77 *164:86 4.185 
17 *164:86 *164:90 5.9 
18 *164:90 *32975:A 4.12 
19 *164:90 *32962:A3 11.6 
20 *164:86 *164:116 2.4 
21 *164:116 *32969:A2 3.6 
22 *164:116 *32970:A2 7.02 
23 *164:31 *32964:A2 1.6 
*END

*D_NET *165 0.0313374
*CONN
*I *32968:A3 I *D sky130_fd_sc_hd__a32o_2
*I *32967:A3 I *D sky130_fd_sc_hd__a32o_2
*I *32966:A3 I *D sky130_fd_sc_hd__a32o_2
*I *32965:A3 I *D sky130_fd_sc_hd__a32o_2
*I *32964:A3 I *D sky130_fd_sc_hd__a32o_2
*I *32960:B I *D sky130_fd_sc_hd__nor2_2
*I *32963:A3 I *D sky130_fd_sc_hd__a32o_2
*I *32957:B I *D sky130_fd_sc_hd__and2_2
*I *32969:A3 I *D sky130_fd_sc_hd__a32o_2
*I *32970:A3 I *D sky130_fd_sc_hd__a32o_2
*I *32975:B I *D sky130_fd_sc_hd__and2_2
*I *32956:X O *D sky130_fd_sc_hd__and2_2
*CAP
1 *32968:A3 3.71096e-05
2 *32967:A3 0
3 *32966:A3 0
4 *32965:A3 0
5 *32964:A3 0
6 *32960:B 0
7 *32963:A3 0.00106618
8 *32957:B 0.000715624
9 *32969:A3 0
10 *32970:A3 0.000172317
11 *32975:B 6.50016e-05
12 *32956:X 0.000452368
13 *165:78 0.00292584
14 *165:74 0.00416741
15 *165:72 0.00449799
16 *165:55 0.00300981
17 *165:53 0.000284024
18 *165:51 0.000271178
19 *165:49 0.000182445
20 *165:47 0.000161944
21 *165:43 0.000398674
22 *165:25 0.000348417
23 *165:10 0.000546455
24 *165:6 0.0010487
25 *165:6 *32956:A 5.83121e-06
26 *32957:A *32957:B 5.13692e-05
27 *32962:A3 *165:10 2.92496e-05
28 *32962:A3 *165:25 9.56012e-05
29 *32963:A2 *32963:A3 0.0028828
30 *32968:A1 *165:6 0.000119831
31 *32969:A1 *165:25 0.00014785
32 *32970:A2 *32970:A3 0.000283734
33 *32975:A *32975:B 0.000201503
34 *32976:D *165:25 0.000353049
35 *32978:D *32975:B 9.27326e-05
36 *75:39 *165:74 0.00129886
37 *75:39 *165:78 4.43871e-06
38 *75:47 *165:78 0.00033441
39 *75:51 *165:78 0.00374004
40 *75:176 *32970:A3 1.73877e-05
41 *164:31 *165:53 1.07797e-05
42 *164:31 *165:55 2.59981e-05
43 *164:35 *32957:B 0.000139933
44 *164:35 *165:55 0.000186092
45 *164:50 *165:53 0.00031465
46 *164:50 *165:55 4.31106e-05
47 *164:59 *165:49 9.50342e-06
48 *164:59 *165:51 0.000184252
49 *164:59 *165:53 4.10132e-05
50 *164:68 *165:49 0.000131401
51 *164:77 *165:10 0
52 *164:77 *165:47 0.000141592
53 *164:77 *165:49 4.38051e-05
54 *164:86 *165:10 0
55 *164:90 *32975:B 4.66108e-05
56 *164:116 *32970:A3 8.53113e-06
57 *164:116 *165:25 0
*RES
1 *32956:X *165:6 6.535 
2 *165:6 *165:10 6.95 
3 *165:10 *32975:B 5.775 
4 *165:10 *165:25 7.355 
5 *165:25 *32970:A3 9.53 
6 *165:25 *32969:A3 1.6 
7 *165:6 *165:43 3.21 
8 *165:43 *165:47 3.635 
9 *165:47 *165:49 2.145 
10 *165:49 *165:51 2.145 
11 *165:51 *165:53 4.185 
12 *165:53 *165:55 2.655 
13 *165:55 *32957:B 15 
14 *165:55 *165:72 27.91 
15 *165:72 *165:74 46.515 
16 *165:74 *165:78 49.025 
17 *165:78 *32963:A3 27.58 
18 *165:74 *32960:B 3.6 
19 *165:53 *32964:A3 3.6 
20 *165:51 *32965:A3 3.6 
21 *165:49 *32966:A3 3.6 
22 *165:47 *32967:A3 3.6 
23 *165:43 *32968:A3 2.215 
*END

*D_NET *166 0.00118022
*CONN
*I *32962:B1 I *D sky130_fd_sc_hd__a31o_2
*I *32961:X O *D sky130_fd_sc_hd__a22o_2
*CAP
1 *32962:B1 0.000410536
2 *32961:X 0.000410536
3 *32962:B1 *200:20 0.000203018
4 axi_awready_o *32962:B1 7.08493e-05
5 *32969:A1 *32962:B1 8.52845e-05
*RES
1 *32961:X *32962:B1 14.85 
*END

*D_NET *167 0.00112581
*CONN
*I *33005:csb1 I *D sky130_sram_1kbyte_1rw1r_32x256_8
*I *32980:HI O *D sky130_fd_sc_hd__conb_1
*CAP
1 *33005:csb1 0.000562903
2 *32980:HI 0.000562903
*RES
1 *32980:HI *33005:csb1 11.8512 
*END

*D_NET *168 0.001376
*CONN
*I *33005:addr1[0] I *D sky130_sram_1kbyte_1rw1r_32x256_8
*I *32981:LO O *D sky130_fd_sc_hd__conb_1
*CAP
1 *33005:addr1[0] 0.000685401
2 *32981:LO 0.000685401
3 *33005:addr1[0] *33005:clk1 5.2007e-06
*RES
1 *32981:LO *33005:addr1[0] 8.7163 
*END

*D_NET *169 0.00116891
*CONN
*I *33005:addr1[1] I *D sky130_sram_1kbyte_1rw1r_32x256_8
*I *32982:LO O *D sky130_fd_sc_hd__conb_1
*CAP
1 *33005:addr1[1] 0.000584453
2 *32982:LO 0.000584453
*RES
1 *32982:LO *33005:addr1[1] 12.0638 
*END

*D_NET *170 0.00111837
*CONN
*I *33005:addr1[2] I *D sky130_sram_1kbyte_1rw1r_32x256_8
*I *32983:LO O *D sky130_fd_sc_hd__conb_1
*CAP
1 *33005:addr1[2] 0.000559183
2 *32983:LO 0.000559183
3 *33005:addr1[2] *33005:addr1[3] 0
*RES
1 *32983:LO *33005:addr1[2] 11.8512 
*END

*D_NET *171 0.00121661
*CONN
*I *33005:addr1[3] I *D sky130_sram_1kbyte_1rw1r_32x256_8
*I *32984:LO O *D sky130_fd_sc_hd__conb_1
*CAP
1 *33005:addr1[3] 0.000608305
2 *32984:LO 0.000608305
3 *33005:addr1[2] *33005:addr1[3] 0
*RES
1 *32984:LO *33005:addr1[3] 12.3188 
*END

*D_NET *172 0.00158899
*CONN
*I *33005:addr1[4] I *D sky130_sram_1kbyte_1rw1r_32x256_8
*I *32985:LO O *D sky130_fd_sc_hd__conb_1
*CAP
1 *33005:addr1[4] 0.000376112
2 *32985:LO 0.000376112
3 *33005:addr1[4] *33005:addr1[6] 3.17374e-05
4 *33005:addr1[4] *33005:addr1[7] 0.000805027
*RES
1 *32985:LO *33005:addr1[4] 12.3246 
*END

*D_NET *173 0.00137487
*CONN
*I *33005:addr1[5] I *D sky130_sram_1kbyte_1rw1r_32x256_8
*I *32986:LO O *D sky130_fd_sc_hd__conb_1
*CAP
1 *33005:addr1[5] 0.000263129
2 *32986:LO 0.000263129
3 *33005:addr1[5] *33005:addr1[6] 0.00054953
4 *33005:addr1[5] *33005:addr1[7] 0.000299082
*RES
1 *32986:LO *33005:addr1[5] 12.7384 
*END

*D_NET *174 0.00170832
*CONN
*I *33005:addr1[6] I *D sky130_sram_1kbyte_1rw1r_32x256_8
*I *32987:LO O *D sky130_fd_sc_hd__conb_1
*CAP
1 *33005:addr1[6] 0.000490508
2 *32987:LO 0.000490508
3 *33005:addr1[6] *33005:addr1[7] 0.000146034
4 *33005:addr1[4] *33005:addr1[6] 3.17374e-05
5 *33005:addr1[5] *33005:addr1[6] 0.00054953
*RES
1 *32987:LO *33005:addr1[6] 13.297 
*END

*D_NET *175 0.00168518
*CONN
*I *33005:addr1[7] I *D sky130_sram_1kbyte_1rw1r_32x256_8
*I *32988:LO O *D sky130_fd_sc_hd__conb_1
*CAP
1 *33005:addr1[7] 0.000217521
2 *32988:LO 0.000217521
3 *33005:addr1[4] *33005:addr1[7] 0.000805027
4 *33005:addr1[5] *33005:addr1[7] 0.000299082
5 *33005:addr1[6] *33005:addr1[7] 0.000146034
*RES
1 *32988:LO *33005:addr1[7] 12.7409 
*END

*D_NET *176 0.000474298
*CONN
*I *32995:A I *D sky130_fd_sc_hd__clkbuf_16
*I *33000:X O *D sky130_fd_sc_hd__clkbuf_16
*CAP
1 *32995:A 3.71719e-05
2 *33000:X 0
3 *176:11 0.000232984
4 *176:6 0.000195812
5 *32995:A *32978:CLK 8.3303e-06
6 *176:11 *32979:CLK 0
7 *176:11 *178:15 0
*RES
1 *33000:X *176:6 3.6 
2 *176:6 *176:11 3.165 
3 *176:11 *32995:A 4.095 
*END

*D_NET *177 0.0227632
*CONN
*I *32998:A I *D sky130_fd_sc_hd__clkbuf_16
*I *32996:A I *D sky130_fd_sc_hd__clkbuf_16
*I *32994:X O *D sky130_fd_sc_hd__clkbuf_16
*CAP
1 *32998:A 8.78217e-05
2 *32996:A 0.000129156
3 *32994:X 0.000183696
4 *177:38 0.0054271
5 *177:33 0.00543378
6 *177:15 0.00223256
7 *177:13 0.00357401
8 *177:6 0.0015598
9 *32994:A *177:13 5.884e-05
10 *155:54 *32996:A 6.00828e-05
11 *155:54 *177:13 0.000943457
12 *155:54 *177:15 0.00307293
*RES
1 *32994:X *177:6 2.9125 
2 *177:6 *177:13 26.34 
3 *177:13 *177:15 48.06 
4 *177:15 *32996:A 3.8725 
5 *32994:X *177:33 2.9125 
6 *177:33 *177:38 76.005 
7 *177:38 *32998:A 2.9125 
*END

*D_NET *178 0.00292212
*CONN
*I *32997:A I *D sky130_fd_sc_hd__clkbuf_16
*I *32999:A I *D sky130_fd_sc_hd__clkbuf_16
*I *32995:X O *D sky130_fd_sc_hd__clkbuf_16
*CAP
1 *32997:A 9.75784e-05
2 *32999:A 0
3 *32995:X 0
4 *178:35 0.000464952
5 *178:26 0.000367374
6 *178:15 0.000769143
7 *178:6 0.000863006
8 *178:4 9.38631e-05
9 *178:15 *32978:CLK 0
10 *178:35 *33005:addr0[7] 0.000266204
11 *155:12 *178:15 0
12 *176:11 *178:15 0
*RES
1 *32995:X *178:4 1.6 
2 *178:4 *178:6 1.3125 
3 *178:6 *178:15 14.3075 
4 *178:15 *32999:A 3.6 
5 *178:4 *178:26 2 
6 *178:26 *178:35 9.7775 
7 *178:35 *32997:A 2.9125 
*END

*D_NET *179 0.0536533
*CONN
*I *33005:clk0 I *D sky130_sram_1kbyte_1rw1r_32x256_8
*I *32996:X O *D sky130_fd_sc_hd__clkbuf_16
*CAP
1 *33005:clk0 0.00155532
2 *32996:X 0
3 *179:22 0.0184394
4 *179:20 0.0183292
5 *179:16 0.00298269
6 *179:6 0.00385355
7 *179:4 0.00231598
8 *179:22 *33005:web0 0.000336182
9 *155:36 *179:16 4.90291e-05
10 *155:36 *179:20 0.00179359
11 *155:38 *179:6 0.00337705
12 *155:38 *179:16 0.000621272
*RES
1 *32996:X *179:4 1.6 
2 *179:4 *179:6 52.7175 
3 *179:6 *179:16 24.6475 
4 *179:16 *179:20 30.05 
5 *179:20 *179:22 307.508 
6 *179:22 *33005:clk0 5.256 
*END

*D_NET *180 0.00129231
*CONN
*I *32978:CLK I *D sky130_fd_sc_hd__dfrtp_2
*I *32976:CLK I *D sky130_fd_sc_hd__dfstp_2
*I *32997:X O *D sky130_fd_sc_hd__clkbuf_16
*CAP
1 *32978:CLK 0.00016529
2 *32976:CLK 0.000131283
3 *32997:X 0.000345415
4 *180:8 0.000641988
5 *32978:D *32978:CLK 0
6 *32978:D *180:8 0
7 *32995:A *32978:CLK 8.3303e-06
8 *178:15 *32978:CLK 0
*RES
1 *32997:X *180:8 9.315 
2 *180:8 *32976:CLK 5.43 
3 *180:8 *32978:CLK 6.195 
*END

*D_NET *181 0.0105647
*CONN
*I *33005:clk1 I *D sky130_sram_1kbyte_1rw1r_32x256_8
*I *32998:X O *D sky130_fd_sc_hd__clkbuf_16
*CAP
1 *33005:clk1 0.00527974
2 *32998:X 0.00527974
3 *33005:addr1[0] *33005:clk1 5.2007e-06
*RES
1 *32998:X *33005:clk1 18.268 
*END

*D_NET *182 0.00140822
*CONN
*I *33001:A I *D sky130_fd_sc_hd__clkbuf_4
*I *32977:CLK I *D sky130_fd_sc_hd__dfrtp_2
*I *32979:CLK I *D sky130_fd_sc_hd__dfrtp_2
*I *32999:X O *D sky130_fd_sc_hd__clkbuf_16
*CAP
1 *33001:A 0.000148195
2 *32977:CLK 0
3 *32979:CLK 0.000241783
4 *32999:X 0.000167301
5 *182:12 0.000388615
6 *182:10 0.000462328
7 *32977:D *32979:CLK 0
8 *176:11 *32979:CLK 0
*RES
1 *32999:X *182:10 5.775 
2 *182:10 *182:12 2.4 
3 *182:12 *32979:CLK 7.53 
4 *182:12 *32977:CLK 3.6 
5 *182:10 *33001:A 5.775 
*END

*D_NET *183 0.00160157
*CONN
*I *32958:B1 I *D sky130_fd_sc_hd__a21o_2
*I *33002:X O *D sky130_fd_sc_hd__dlygate4sd3_1
*CAP
1 *32958:B1 0.000673736
2 *33002:X 0.000673736
3 *32958:B1 *200:20 0.000139238
4 axi_rvalid_o *32958:B1 0
5 *32979:RESET_B *32958:B1 0.000114858
*RES
1 *33002:X *32958:B1 15.9 
*END

*D_NET *184 0.00101907
*CONN
*I *32979:D I *D sky130_fd_sc_hd__dfrtp_2
*I *33003:X O *D sky130_fd_sc_hd__dlygate4sd3_1
*CAP
1 *32979:D 0.000394246
2 *33003:X 0.000394246
3 *32979:D *33002:A 0.000163204
4 *32977:D *32979:D 6.73751e-05
*RES
1 *33003:X *32979:D 14.025 
*END

*D_NET *185 0.00196382
*CONN
*I *32959:A1 I *D sky130_fd_sc_hd__a21o_2
*I *33004:X O *D sky130_fd_sc_hd__dlygate4sd3_1
*CAP
1 *32959:A1 0.000714153
2 *33004:X 0.000714153
3 axi_awready_o *32959:A1 3.45588e-05
4 *32977:D *32959:A1 0.000471307
5 *33003:A *32959:A1 0
6 *75:191 *32959:A1 2.96426e-05
*RES
1 *33004:X *32959:A1 17.775 
*END

*D_NET *186 0.00892785
*CONN
*I *33005:addr0[0] I *D sky130_sram_1kbyte_1rw1r_32x256_8
*I *32963:X O *D sky130_fd_sc_hd__a32o_2
*CAP
1 *33005:addr0[0] 0.00353093
2 *32963:X 0.00353093
3 *33005:addr0[0] *33005:wmask0[0] 0
4 *75:70 *33005:addr0[0] 0.00186599
*RES
1 *32963:X *33005:addr0[0] 49.1929 
*END

*D_NET *187 0.00535595
*CONN
*I *33005:addr0[1] I *D sky130_sram_1kbyte_1rw1r_32x256_8
*I *32964:X O *D sky130_fd_sc_hd__a32o_2
*CAP
1 *33005:addr0[1] 0.00253555
2 *32964:X 0.00253555
3 *33005:addr0[1] *33005:addr0[2] 0.000284852
*RES
1 *32964:X *33005:addr0[1] 32.1133 
*END

*D_NET *188 0.0059045
*CONN
*I *33005:addr0[2] I *D sky130_sram_1kbyte_1rw1r_32x256_8
*I *32965:X O *D sky130_fd_sc_hd__a32o_2
*CAP
1 *33005:addr0[2] 0.00260391
2 *32965:X 0.00260391
3 *33005:addr0[2] *33005:addr0[3] 0
4 *33005:addr0[2] *33005:addr0[4] 0.000411833
5 *33005:addr0[1] *33005:addr0[2] 0.000284852
*RES
1 *32965:X *33005:addr0[2] 35.7468 
*END

*D_NET *189 0.00678408
*CONN
*I *33005:addr0[3] I *D sky130_sram_1kbyte_1rw1r_32x256_8
*I *32966:X O *D sky130_fd_sc_hd__a32o_2
*CAP
1 *33005:addr0[3] 0.00290899
2 *32966:X 0.00290899
3 *33005:addr0[3] *33005:addr0[5] 0.000659262
4 *33005:addr0[3] *33005:addr0[7] 0.000106983
5 *32967:B2 *33005:addr0[3] 6.74079e-05
6 *32968:B2 *33005:addr0[3] 1.00941e-05
7 *32969:B2 *33005:addr0[3] 0.000122362
8 *33005:addr0[2] *33005:addr0[3] 0
9 *75:143 *33005:addr0[3] 0
10 *75:154 *33005:addr0[3] 0
11 *75:165 *33005:addr0[3] 0
12 *75:176 *33005:addr0[3] 0
*RES
1 *32966:X *33005:addr0[3] 22.6436 
*END

*D_NET *190 0.00664475
*CONN
*I *33005:addr0[4] I *D sky130_sram_1kbyte_1rw1r_32x256_8
*I *32967:X O *D sky130_fd_sc_hd__a32o_2
*CAP
1 *33005:addr0[4] 0.00311646
2 *32967:X 0.00311646
3 *33005:addr0[4] *33005:addr0[5] 0
4 *33005:addr0[4] *33005:addr0[7] 0
5 *33005:addr0[2] *33005:addr0[4] 0.000411833
*RES
1 *32967:X *33005:addr0[4] 41.9302 
*END

*D_NET *191 0.00810404
*CONN
*I *33005:addr0[5] I *D sky130_sram_1kbyte_1rw1r_32x256_8
*I *32968:X O *D sky130_fd_sc_hd__a32o_2
*CAP
1 *33005:addr0[5] 0.00302878
2 *32968:X 0.00302878
3 *33005:addr0[5] *33005:addr0[6] 0.00114883
4 *33005:addr0[3] *33005:addr0[5] 0.000659262
5 *33005:addr0[4] *33005:addr0[5] 0
6 *75:176 *33005:addr0[5] 0
7 *75:191 *33005:addr0[5] 0
8 *116:12 *33005:addr0[5] 0.000238388
*RES
1 *32968:X *33005:addr0[5] 29.907 
*END

*D_NET *192 0.00707982
*CONN
*I *33005:addr0[6] I *D sky130_sram_1kbyte_1rw1r_32x256_8
*I *32969:X O *D sky130_fd_sc_hd__a32o_2
*CAP
1 *33005:addr0[6] 0.00285204
2 *32969:X 0.00285204
3 *33005:addr0[6] *33005:addr0[7] 0
4 *32976:D *33005:addr0[6] 0.000120655
5 *32976:SET_B *33005:addr0[6] 0
6 *32977:RESET_B *33005:addr0[6] 0
7 *32979:RESET_B *33005:addr0[6] 0
8 *33004:A *33005:addr0[6] 0
9 *33005:addr0[5] *33005:addr0[6] 0.00114883
10 *116:12 *33005:addr0[6] 0.000106253
11 *156:24 *33005:addr0[6] 0
*RES
1 *32969:X *33005:addr0[6] 30.2388 
*END

*D_NET *193 0.00744284
*CONN
*I *33005:addr0[7] I *D sky130_sram_1kbyte_1rw1r_32x256_8
*I *32970:X O *D sky130_fd_sc_hd__a32o_2
*CAP
1 *33005:addr0[7] 0.00336864
2 *32970:X 0.00336864
3 *33005:addr0[3] *33005:addr0[7] 0.000106983
4 *33005:addr0[4] *33005:addr0[7] 0
5 *33005:addr0[6] *33005:addr0[7] 0
6 *155:12 *33005:addr0[7] 0.000332363
7 *178:35 *33005:addr0[7] 0.000266204
*RES
1 *32970:X *33005:addr0[7] 42.2498 
*END

*D_NET *194 0.00396094
*CONN
*I *33005:csb0 I *D sky130_sram_1kbyte_1rw1r_32x256_8
*I *32960:Y O *D sky130_fd_sc_hd__nor2_2
*CAP
1 *33005:csb0 0.00123788
2 *32960:Y 0.00123788
3 *75:47 *33005:csb0 0.000342942
4 *75:51 *33005:csb0 0.00114223
*RES
1 *32960:Y *33005:csb0 22.5428 
*END

*D_NET *195 0.0020913
*CONN
*I *33005:web0 I *D sky130_sram_1kbyte_1rw1r_32x256_8
*I *32955:Y O *D sky130_fd_sc_hd__inv_2
*CAP
1 *33005:web0 0.000874642
2 *32955:Y 0.000874642
3 *32955:A *33005:web0 5.83121e-06
4 *179:22 *33005:web0 0.000336182
*RES
1 *32955:Y *33005:web0 18.6016 
*END

*D_NET *196 0.00578879
*CONN
*I *33005:wmask0[0] I *D sky130_sram_1kbyte_1rw1r_32x256_8
*I *32971:X O *D sky130_fd_sc_hd__and2_2
*CAP
1 *33005:wmask0[0] 0.0024018
2 *32971:X 0.0024018
3 *33005:wmask0[0] *33005:wmask0[1] 0
4 *33005:wmask0[0] *33005:wmask0[2] 0.000356395
5 *33005:addr0[0] *33005:wmask0[0] 0
6 *75:77 *33005:wmask0[0] 0.000237301
7 *75:84 *33005:wmask0[0] 0.000391497
*RES
1 *32971:X *33005:wmask0[0] 29.1992 
*END

*D_NET *197 0.00543735
*CONN
*I *33005:wmask0[1] I *D sky130_sram_1kbyte_1rw1r_32x256_8
*I *32972:X O *D sky130_fd_sc_hd__and2_2
*CAP
1 *33005:wmask0[1] 0.0021511
2 *32972:X 0.0021511
3 *33005:wmask0[1] *33005:wmask0[2] 0.000104175
4 *32973:A *33005:wmask0[1] 0.000124895
5 *32974:A *33005:wmask0[1] 0.000354719
6 *32974:B *33005:wmask0[1] 0.000152858
7 *33005:wmask0[0] *33005:wmask0[1] 0
8 *75:84 *33005:wmask0[1] 0.000398505
*RES
1 *32972:X *33005:wmask0[1] 27.9125 
*END

*D_NET *198 0.00673684
*CONN
*I *33005:wmask0[2] I *D sky130_sram_1kbyte_1rw1r_32x256_8
*I *32973:X O *D sky130_fd_sc_hd__and2_2
*CAP
1 *33005:wmask0[2] 0.00190326
2 *32973:X 0.00190326
3 *33005:wmask0[2] *33005:wmask0[3] 0.00177504
4 *32974:A *33005:wmask0[2] 0.000211748
5 *32974:B *33005:wmask0[2] 0.000394699
6 *33005:wmask0[0] *33005:wmask0[2] 0.000356395
7 *33005:wmask0[1] *33005:wmask0[2] 0.000104175
8 *75:84 *33005:wmask0[2] 8.8266e-05
*RES
1 *32973:X *33005:wmask0[2] 28.6628 
*END

*D_NET *199 0.00630812
*CONN
*I *33005:wmask0[3] I *D sky130_sram_1kbyte_1rw1r_32x256_8
*I *32974:X O *D sky130_fd_sc_hd__and2_2
*CAP
1 *33005:wmask0[3] 0.00226654
2 *32974:X 0.00226654
3 *33005:din0[0] *33005:wmask0[3] 0
4 *33005:wmask0[2] *33005:wmask0[3] 0.00177504
*RES
1 *32974:X *33005:wmask0[3] 24.7918 
*END

*D_NET *200 0.0065001
*CONN
*I *32962:A1 I *D sky130_fd_sc_hd__a31o_2
*I *32956:A I *D sky130_fd_sc_hd__and2_2
*I *32954:B I *D sky130_fd_sc_hd__and3_2
*I *32976:Q O *D sky130_fd_sc_hd__dfstp_2
*CAP
1 *32962:A1 0
2 *32956:A 8.19139e-05
3 *32954:B 0.000698741
4 *32976:Q 0.00132225
5 *200:24 0.00113155
6 *200:20 0.00167315
7 axi_rvalid_o *200:20 0
8 *32952:A *200:24 0
9 *32954:A *32954:B 0
10 *32954:C *32954:B 7.00889e-06
11 *32956:B *32956:A 8.64421e-05
12 *32956:B *200:24 0
13 *32958:A2 *200:20 7.89689e-05
14 *32958:B1 *200:20 0.000139238
15 *32959:A2 *200:20 3.68596e-05
16 *32961:A1 *200:20 0
17 *32962:A2 *200:24 7.23602e-05
18 *32962:A3 *200:20 4.99619e-05
19 *32962:B1 *200:20 0.000203018
20 *32969:A1 *200:20 0.000102611
21 *75:8 *32954:B 3.66913e-05
22 *80:26 *200:20 0.000773501
23 *165:6 *32956:A 5.83121e-06
*RES
1 *32976:Q *200:20 30.11 
2 *200:20 *200:24 7.715 
3 *200:24 *32954:B 14.31 
4 *200:24 *32956:A 5.085 
5 *200:20 *32962:A1 1.6 
*END

*D_NET *201 0.000786622
*CONN
*I *33002:A I *D sky130_fd_sc_hd__dlygate4sd3_1
*I *32978:Q O *D sky130_fd_sc_hd__dfrtp_2
*CAP
1 *33002:A 0.000311709
2 *32978:Q 0.000311709
3 *32979:D *33002:A 0.000163204
*RES
1 *32978:Q *33002:A 7.805 
*END
